p cnf 1122 3885
-1 0
-2 0
-3 0
-4 0
-5 0
6 0
-7 0
-8 0
-9 0
-10 0
-11 0
-12 0
-13 0
-14 0
-15 0
16 0
-17 0
-18 0
-19 0
-20 0
-21 0
-22 0
-23 0
-24 0
25 26 0
18 26 0
-25 -18 -26 0
4 27 0
28 27 0
-4 -28 -27 0
29 30 0
31 30 0
-29 -31 -30 0
29 32 0
18 32 0
-29 -18 -32 0
4 33 0
31 33 0
-4 -31 -33 0
34 -33 0
34 -32 0
32 33 -34 0
-35 34 27 30 0
-35 34 -27 -30 0
-35 -27 30 -34 0
-35 27 -30 -34 0
35 -27 -30 -34 0
35 27 30 -34 0
35 34 27 -30 0
35 34 -27 30 0
-36 32 -33 0
-36 -32 33 0
36 -32 -33 0
32 33 36 0
4 37 0
18 37 0
-4 -18 -37 0
38 -37 0
-36 38 0
37 -38 36 0
35 38 -39 26 0
-35 -26 38 -39 0
35 -26 -38 -39 0
-35 -38 -39 26 0
-35 -26 39 -38 0
35 39 -38 26 0
-35 39 38 26 0
35 -26 39 38 0
40 41 0
16 41 0
-40 -16 -41 0
6 42 0
43 42 0
-6 -43 -42 0
44 45 0
46 45 0
-44 -46 -45 0
44 47 0
16 47 0
-44 -16 -47 0
6 48 0
46 48 0
-6 -46 -48 0
49 -48 0
49 -47 0
48 -49 47 0
49 45 -50 42 0
49 -45 -50 -42 0
45 -50 -49 -42 0
-45 -50 42 -49 0
50 -45 -49 -42 0
50 45 42 -49 0
49 50 -45 42 0
49 50 45 -42 0
41 50 39 0
50 -41 -39 0
41 -50 -39 0
-50 39 -41 0
10 51 0
16 51 0
-10 -16 -51 0
4 52 0
22 52 0
-4 -22 -52 0
52 -51 0
51 -52 0
10 53 0
18 53 0
-10 -18 -53 0
6 54 0
22 54 0
-6 -22 -54 0
54 -53 0
-54 53 0
8 55 0
22 55 0
-8 -22 -55 0
10 56 0
20 56 0
-10 -20 -56 0
56 -55 0
-56 55 0
8 57 0
24 57 0
-8 -24 -57 0
12 58 0
20 58 0
-12 -20 -58 0
58 -57 0
-58 57 0
10 59 0
24 59 0
-10 -24 -59 0
12 60 0
22 60 0
-12 -22 -60 0
60 -59 0
-60 59 0
2 -31 -61 0
-2 -61 31 0
61 -2 -31 0
2 61 31 0
-18 -61 -62 0
18 31 -62 0
62 61 -18 0
-31 62 18 0
-61 31 -62 0
-31 62 61 0
6 63 0
14 63 0
-6 -14 -63 0
-64 63 -62 0
62 -64 -63 0
-63 64 -62 0
62 63 64 0
4 65 0
64 65 0
-4 -64 -65 0
2 66 0
4 66 0
-2 -4 -66 0
29 -66 -67 0
-29 66 -67 0
67 -29 -66 0
67 29 66 0
18 68 0
67 68 0
-18 -67 -68 0
-65 -69 68 0
65 -69 -68 0
-65 69 -68 0
65 69 68 0
-70 -69 37 0
-70 -37 69 0
70 -37 -69 0
70 37 69 0
2 -71 -46 0
46 -2 -71 0
71 -2 -46 0
2 46 71 0
-16 -71 -72 0
16 46 -72 0
71 -16 72 0
16 -46 72 0
46 -71 -72 0
71 -46 72 0
4 73 0
14 73 0
-4 -14 -73 0
-74 73 -72 0
-73 -74 72 0
-73 74 -72 0
74 73 72 0
6 75 0
74 75 0
-6 -74 -75 0
2 76 0
6 76 0
-2 -6 -76 0
-76 44 -77 0
-44 76 -77 0
77 -44 -76 0
76 44 77 0
77 78 0
16 78 0
-16 -77 -78 0
70 75 78 0
-70 78 -75 0
-70 75 -78 0
70 -78 -75 0
-51 52 0
18 79 0
10 79 0
-79 -18 -10 0
79 -54 0
-79 54 0
74 -80 -16 0
16 -74 -80 0
-74 80 -16 0
16 74 80 0
4 81 0
10 81 0
-4 -10 -81 0
4 82 0
83 82 0
-4 -83 -82 0
29 84 0
10 84 0
-29 -10 -84 0
82 84 -85 81 0
-82 84 -85 -81 0
82 -84 -85 -81 0
-82 -84 -85 81 0
-82 -84 85 -81 0
82 -84 85 81 0
-82 84 85 81 0
82 84 85 -81 0
8 86 0
6 86 0
-8 -6 -86 0
8 87 0
44 87 0
-8 -44 -87 0
6 88 0
89 88 0
-6 -89 -88 0
-90 88 -87 0
87 -88 -90 0
-88 -87 90 0
87 88 90 0
-91 -86 90 0
-91 -90 86 0
91 -90 -86 0
91 86 90 0
92 -81 0
92 -86 0
81 86 -92 0
91 -93 85 92 0
-91 -93 -85 92 0
91 -93 -85 -92 0
-91 -93 85 -92 0
-91 93 -85 -92 0
91 93 85 -92 0
-91 93 85 92 0
91 93 -85 92 0
94 -93 0
16 94 0
93 -16 -94 0
-81 86 -95 0
-86 81 -95 0
-81 -86 95 0
86 81 95 0
-96 -94 -95 0
94 96 -95 0
74 -96 -93 95 0
-96 93 -80 95 0
96 -93 -74 95 0
96 93 80 95 0
74 -96 -80 95 0
96 -74 80 95 0
74 -96 -94 -80 0
94 96 -74 80 0
8 97 0
16 97 0
-8 -16 -97 0
4 98 0
20 98 0
-4 -20 -98 0
-97 -99 98 0
97 -98 -99 0
-97 -98 99 0
97 99 98 0
6 100 0
-99 100 0
99 -6 -100 0
-56 100 -101 0
56 -100 -101 0
-56 101 -100 0
56 100 101 0
8 102 0
18 102 0
-8 -18 -102 0
-51 102 -103 0
51 -102 -103 0
-51 -102 103 0
51 102 103 0
6 104 0
20 104 0
-6 -20 -104 0
104 -105 -103 0
-104 -105 103 0
105 -104 -103 0
105 104 103 0
-106 52 -105 0
105 -52 -106 0
106 -52 -105 0
105 106 52 0
4 107 0
-106 107 0
106 -107 -4 0
107 -101 -108 0
-107 101 -108 0
-107 -101 108 0
107 101 108 0
4 109 0
8 109 0
-4 -8 -109 0
18 110 0
110 -109 0
-110 109 -18 0
110 -111 -108 0
-110 -111 108 0
-110 111 -108 0
110 111 108 0
-112 8 -4 0
4 -112 -8 0
112 -8 -4 0
4 112 8 0
-112 113 0
22 113 0
112 -22 -113 0
-113 114 0
114 -111 0
111 -114 113 0
2 -115 -116 0
115 -2 -116 0
116 -2 -115 0
2 115 116 0
-22 -116 -117 0
22 115 -117 0
117 -22 116 0
22 117 -115 0
115 -117 -116 0
117 -115 116 0
10 118 0
14 118 0
-10 -14 -118 0
6 119 0
16 119 0
-6 -16 -119 0
119 -120 -118 0
118 -119 -120 0
-119 120 -118 0
118 119 120 0
-121 37 -120 0
-121 -37 120 0
121 -37 -120 0
121 37 120 0
-117 121 -122 0
117 -121 -122 0
-117 -121 122 0
117 121 122 0
-22 -123 122 0
22 -123 -122 0
-22 123 -122 0
22 123 122 0
-117 -124 121 0
117 -124 -121 0
-117 -121 124 0
117 121 124 0
8 125 0
4 125 0
-8 -125 -4 0
4 126 0
29 126 0
-4 -29 -126 0
29 127 0
4 127 0
-127 -29 -4 0
127 -128 -126 0
-127 -128 126 0
-127 128 -126 0
127 128 126 0
4 128 -129 125 0
4 -128 -129 -125 0
128 -129 -125 -4 0
-128 -129 125 -4 0
-128 129 -125 -4 0
128 129 125 -4 0
4 -128 129 125 0
4 128 129 -125 0
2 130 0
8 130 0
-2 -8 -130 0
129 -131 89 130 0
-129 -131 89 -130 0
-129 -131 130 -89 0
129 -131 -130 -89 0
-129 -130 131 -89 0
129 131 130 -89 0
129 89 -130 131 0
-129 89 131 130 0
132 -131 0
22 132 0
131 -22 -132 0
-112 -132 -133 0
-112 132 133 0
112 -131 124 -133 0
112 131 -123 -133 0
112 -124 -131 133 0
112 133 123 131 0
112 124 -123 -133 0
112 -124 133 123 0
-132 -123 124 -133 0
132 -124 133 123 0
133 -134 -114 0
-134 -133 114 0
134 -133 -114 0
134 133 114 0
64 135 0
-109 135 0
-64 109 -135 0
4 136 0
89 136 0
-4 -89 -136 0
29 137 0
8 137 0
-29 -8 -137 0
-136 -138 137 0
-138 -137 136 0
-136 138 -137 0
138 137 136 0
139 -138 0
18 139 0
138 -18 -139 0
-110 140 0
140 -108 0
110 -140 108 0
139 140 135 -141 0
140 -135 -141 -139 0
139 -140 -135 -141 0
-140 135 -141 -139 0
-140 -135 -139 141 0
139 -140 135 141 0
140 135 -139 141 0
139 140 -135 141 0
142 -101 0
-107 142 0
101 107 -142 0
4 143 0
115 143 0
-4 -115 -143 0
29 144 0
22 144 0
-29 -22 -144 0
144 -145 -143 0
-144 -145 143 0
-144 145 -143 0
144 145 143 0
146 -105 0
-52 146 0
105 -146 52 0
-147 146 -145 0
-147 -146 145 0
147 -146 -145 0
147 146 145 0
6 148 0
149 148 0
-6 -149 -148 0
44 150 0
20 150 0
-44 -20 -150 0
150 -148 -151 0
-150 148 -151 0
-150 -148 151 0
150 148 151 0
152 -104 0
152 -103 0
-152 104 103 0
152 -151 -153 0
-152 151 -153 0
-152 -151 153 0
152 151 153 0
-51 154 0
-102 154 0
51 102 -154 0
-155 89 -4 0
4 -155 -89 0
155 -4 -89 0
4 155 89 0
-155 8 -156 0
-8 155 -156 0
156 -8 -155 0
155 8 156 0
31 157 0
8 157 0
-31 -8 -157 0
18 -157 -158 0
18 157 158 0
-31 -158 -18 156 0
-158 -18 -155 31 0
-31 158 -18 -156 0
155 158 -18 31 0
-158 -18 -155 156 0
155 158 -18 -156 0
-158 -155 156 -157 0
155 158 -156 157 0
10 159 0
46 159 0
-10 -46 -159 0
83 160 0
16 160 0
-83 -16 -160 0
-159 -161 160 0
159 -161 -160 0
161 -159 -160 0
161 159 160 0
161 158 -162 154 0
-158 161 -162 -154 0
-161 158 -162 -154 0
-158 -161 -162 154 0
-158 -161 162 -154 0
-161 162 158 154 0
-158 161 162 154 0
161 162 158 -154 0
147 -163 162 153 0
-147 -163 162 -153 0
-147 -163 -162 153 0
147 -163 -162 -153 0
-147 163 -162 -153 0
147 163 -162 153 0
147 163 162 -153 0
-147 163 162 153 0
-164 -163 106 0
-164 163 -106 0
164 -106 -163 0
164 163 106 0
67 165 0
-106 165 0
106 -165 -67 0
4 -165 -166 0
4 165 166 0
164 -166 -4 -67 0
67 163 -166 -4 0
-164 166 -4 -67 0
67 -163 166 -4 0
164 163 -166 -4 0
-164 -163 166 -4 0
164 163 -166 -165 0
-164 -163 166 165 0
-142 -167 166 0
142 -167 -166 0
167 -142 -166 0
167 142 166 0
168 -56 0
168 -100 0
56 100 -168 0
4 169 0
149 169 0
-4 -149 -169 0
29 170 0
20 170 0
-29 -20 -170 0
169 -171 170 98 0
-169 -171 170 -98 0
169 -171 -98 -170 0
-169 -171 98 -170 0
-169 171 -98 -170 0
169 171 98 -170 0
-169 171 170 98 0
169 171 170 -98 0
172 -97 0
172 -98 0
97 98 -172 0
-171 172 -173 0
171 -173 -172 0
-171 173 -172 0
172 171 173 0
8 174 0
46 174 0
-8 -46 -174 0
16 -174 -175 0
16 174 175 0
-175 -16 156 -46 0
-175 46 -155 -16 0
175 -16 -156 -46 0
175 46 155 -16 0
-175 -155 -16 156 0
175 155 -16 -156 0
-175 -155 156 -174 0
175 155 174 -156 0
175 97 -176 173 0
-175 97 -173 -176 0
175 -97 -173 -176 0
-175 -97 -176 173 0
-175 -97 -173 176 0
175 -97 176 173 0
-175 97 176 173 0
175 97 -173 176 0
-176 99 -177 0
176 -99 -177 0
177 -99 -176 0
176 99 177 0
77 178 0
-99 178 0
99 -77 -178 0
6 -178 -179 0
6 178 179 0
-6 -179 177 -77 0
176 -6 -179 77 0
-6 179 -177 -77 0
-176 -6 179 77 0
176 -6 -179 177 0
-176 -6 179 -177 0
176 -179 177 -178 0
-176 178 179 -177 0
168 -180 100 179 0
-168 -180 -100 179 0
-168 -180 100 -179 0
168 -180 -100 -179 0
-168 180 -100 -179 0
168 180 100 -179 0
168 180 -100 179 0
-168 180 100 179 0
2 -181 -149 0
-2 -181 149 0
181 -2 -149 0
2 181 149 0
-20 182 0
20 -182 0
-181 -182 -183 0
182 149 -183 0
183 181 -182 0
183 -149 182 0
-181 149 -183 0
183 181 -149 0
8 184 0
14 184 0
-8 -14 -184 0
4 185 0
16 185 0
-4 -16 -185 0
183 -186 185 184 0
-186 185 -183 -184 0
-186 -185 -183 184 0
183 -186 -185 -184 0
186 -185 -183 -184 0
183 186 -185 184 0
183 186 185 -184 0
186 185 -183 184 0
-20 -187 186 0
-187 -186 20 0
-20 -186 187 0
186 20 187 0
4 188 0
6 188 0
-4 -6 -188 0
2 189 0
10 189 0
-2 -10 -189 0
83 -189 -190 0
-83 189 -190 0
190 -83 -189 0
83 189 190 0
-188 190 -191 0
188 -190 -191 0
-188 -190 191 0
188 190 191 0
20 192 0
191 192 0
-20 -191 -192 0
10 -192 -193 0
10 192 193 0
-187 -193 -10 -191 0
-193 186 -10 191 0
193 -10 -191 187 0
193 -186 -10 191 0
-187 -193 186 -10 0
193 -186 -10 187 0
-187 -193 186 -192 0
192 193 -186 187 0
-194 180 193 56 0
-194 -56 193 -180 0
-194 -193 -180 56 0
-194 -56 180 -193 0
194 -56 -193 -180 0
194 180 -193 56 0
194 -56 180 193 0
194 193 -180 56 0
194 -195 167 141 0
194 -195 -167 -141 0
-194 -195 167 -141 0
-194 -195 -167 141 0
-194 195 -167 -141 0
-194 195 167 141 0
194 195 -167 141 0
194 195 167 -141 0
195 134 96 -196 0
195 -96 -196 -134 0
-195 134 -96 -196 0
-195 96 -196 -134 0
-195 -96 -134 196 0
-195 134 96 196 0
195 96 -134 196 0
195 134 -96 196 0
-196 0
-197 12 -6 0
-12 -197 6 0
-12 197 -6 0
197 12 6 0
20 198 0
-197 198 0
-20 197 -198 0
6 199 0
-106 199 0
106 -199 -6 0
-200 199 -198 0
-200 -199 198 0
200 -199 -198 0
200 199 198 0
12 201 0
16 201 0
-12 -16 -201 0
-202 -201 53 0
-202 201 -53 0
202 -53 -201 0
202 201 53 0
-202 -203 54 0
-54 202 -203 0
203 -54 -202 0
202 203 54 0
4 204 0
24 204 0
-4 -24 -204 0
-205 -203 204 0
-205 203 -204 0
-203 -204 205 0
203 205 204 0
4 206 0
-205 206 0
205 -4 -206 0
18 207 0
207 -95 0
-207 -18 95 0
200 -208 207 206 0
-200 -208 207 -206 0
-207 -200 -208 206 0
-207 200 -208 -206 0
208 -207 -200 -206 0
208 -207 200 206 0
208 200 207 -206 0
208 -200 207 206 0
209 -112 0
24 209 0
112 -24 -209 0
4 210 0
12 210 0
-4 -12 -210 0
6 211 0
10 211 0
-6 -10 -211 0
-210 211 -212 0
210 -211 -212 0
-210 -211 212 0
210 211 212 0
213 -212 0
16 213 0
212 -16 -213 0
209 208 213 0
-209 213 -208 0
209 -213 -208 0
-209 208 -213 0
12 214 0
6 214 0
-12 -214 -6 0
6 215 0
44 215 0
-6 -44 -215 0
44 216 0
6 216 0
-44 -216 -6 0
-217 -215 216 0
-217 215 -216 0
217 -215 -216 0
217 215 216 0
217 -218 6 214 0
-217 -214 -218 6 0
217 -214 -218 -6 0
-217 -218 -6 214 0
-217 -214 218 -6 0
217 218 -6 214 0
-217 218 6 214 0
217 -214 218 6 0
2 219 0
12 219 0
-2 -12 -219 0
218 220 219 -221 0
-218 220 -219 -221 0
-218 -220 219 -221 0
218 -220 -219 -221 0
-218 -220 -219 221 0
218 -220 219 221 0
218 220 -219 221 0
-218 220 219 221 0
22 222 0
222 -221 0
-22 -222 221 0
-197 -222 -223 0
-197 222 223 0
197 -223 124 -221 0
197 221 -123 -223 0
197 -124 -221 223 0
197 123 221 223 0
197 -223 -123 124 0
197 -124 123 223 0
-222 -223 -123 124 0
-124 222 123 223 0
6 224 0
12 224 0
-6 -12 -224 0
225 -224 0
16 225 0
224 -16 -225 0
6 226 0
226 -205 0
-226 -6 205 0
226 -225 -227 0
-226 225 -227 0
-226 -225 227 0
226 225 227 0
12 228 0
18 228 0
-12 -18 -228 0
6 229 0
24 229 0
-6 -24 -229 0
-230 -228 229 0
-229 -230 228 0
-229 230 -228 0
230 228 229 0
4 231 0
231 -230 0
-4 -231 230 0
-227 -232 231 0
227 -232 -231 0
-227 232 -231 0
227 232 231 0
233 -212 0
18 233 0
212 -18 -233 0
233 -232 -234 0
232 -233 -234 0
-232 -233 234 0
232 233 234 0
235 -234 0
-59 235 0
59 234 -235 0
2 -236 -237 0
-2 237 -236 0
236 -2 -237 0
2 237 236 0
238 -24 0
-238 24 0
-239 -238 -236 0
-239 238 237 0
239 -238 236 0
239 238 -237 0
-239 237 -236 0
239 236 -237 0
12 240 0
14 240 0
-12 -14 -240 0
6 241 0
18 241 0
-6 -18 -241 0
239 -242 240 241 0
-239 -242 -240 241 0
-239 -242 240 -241 0
239 -242 -240 -241 0
-239 -240 -241 242 0
239 240 -241 242 0
239 -240 241 242 0
-239 240 241 242 0
-243 242 -24 0
-243 -242 24 0
243 -242 -24 0
243 24 242 0
191 244 0
24 244 0
-244 -191 -24 0
10 -244 -245 0
10 244 245 0
-10 -191 -243 -245 0
-245 -10 191 242 0
243 245 -10 -191 0
245 -242 -10 191 0
-243 -245 -10 242 0
243 245 -242 -10 0
-243 -245 -244 242 0
244 243 245 -242 0
245 -246 -235 0
-245 235 -246 0
-245 246 -235 0
245 235 246 0
247 -233 0
247 -232 0
-247 232 233 0
-248 -18 64 0
-248 -64 18 0
-64 -18 248 0
64 18 248 0
4 249 0
220 249 0
-4 -220 -249 0
29 250 0
12 250 0
-29 -12 -250 0
249 250 210 -251 0
-249 250 -210 -251 0
249 -250 -210 -251 0
-249 -250 210 -251 0
-249 -250 -210 251 0
249 -250 210 251 0
-249 250 210 251 0
249 250 -210 251 0
6 252 0
83 252 0
-6 -83 -252 0
44 253 0
10 253 0
-44 -10 -253 0
-252 -254 253 0
-253 252 -254 0
-253 -252 254 0
252 254 253 0
-211 254 -255 0
-254 211 -255 0
255 -254 -211 0
255 211 254 0
-210 256 0
256 -211 0
210 211 -256 0
-257 255 251 256 0
-257 -251 256 -255 0
-257 255 -251 -256 0
-257 251 -256 -255 0
257 -251 -256 -255 0
257 255 251 -256 0
257 251 256 -255 0
257 255 -251 256 0
-257 258 0
18 258 0
257 -18 -258 0
-212 -258 -259 0
259 258 -212 0
-259 -257 64 212 0
212 257 -248 -259 0
-257 -64 259 212 0
257 259 212 248 0
-259 -248 64 212 0
-64 259 212 248 0
-259 -248 64 -258 0
-64 259 258 248 0
-247 259 -260 0
-259 247 -260 0
260 -259 -247 0
260 247 259 0
261 -231 0
-227 261 0
-261 227 231 0
6 262 0
237 262 0
-6 -237 -262 0
44 263 0
24 263 0
-44 -24 -263 0
263 -264 262 229 0
-229 263 -264 -262 0
-229 -264 262 -263 0
-264 -262 -263 229 0
-229 -262 -263 264 0
262 -263 264 229 0
263 -262 264 229 0
-229 263 262 264 0
265 -228 0
-229 265 0
228 229 -265 0
-264 -266 265 0
-266 -265 264 0
-264 266 -265 0
266 265 264 0
-267 220 -6 0
-267 -220 6 0
267 -6 -220 0
267 220 6 0
-267 -268 12 0
-12 267 -268 0
268 -12 -267 0
267 268 12 0
31 269 0
12 269 0
-31 -12 -269 0
18 -269 -270 0
18 269 270 0
-270 -31 268 -18 0
-270 -267 -18 31 0
-31 -268 -18 270 0
267 -18 270 31 0
-270 -267 268 -18 0
267 -268 -18 270 0
-270 -267 -269 268 0
267 269 -268 270 0
-271 266 270 228 0
-270 -271 -266 228 0
-271 -266 270 -228 0
-270 -271 266 -228 0
-270 271 -266 -228 0
271 266 270 -228 0
-270 271 266 228 0
271 -266 270 228 0
-271 -272 230 0
271 -272 -230 0
272 -230 -271 0
271 272 230 0
67 273 0
273 -230 0
-273 230 -67 0
4 -273 -274 0
4 273 274 0
-274 272 -4 -67 0
67 271 -274 -4 0
274 -272 -4 -67 0
67 -271 274 -4 0
271 -274 272 -4 0
-271 274 -272 -4 0
271 -274 272 -273 0
-271 274 -272 273 0
-261 -275 274 0
261 -275 -274 0
-261 -274 275 0
261 274 275 0
-225 276 0
-226 276 0
225 226 -276 0
4 277 0
237 277 0
-4 -237 -277 0
29 278 0
24 278 0
-29 -24 -278 0
-277 278 -279 0
277 -278 -279 0
-277 -278 279 0
277 278 279 0
280 -203 0
280 -204 0
203 204 -280 0
280 -281 -279 0
-280 -281 279 0
-280 281 -279 0
280 281 279 0
6 282 0
115 282 0
-6 -115 -282 0
44 283 0
22 283 0
-44 -22 -283 0
-284 283 -282 0
-284 -283 282 0
284 -283 -282 0
284 283 282 0
-54 285 0
-202 285 0
54 202 -285 0
-284 -286 285 0
284 -286 -285 0
-284 286 -285 0
284 286 285 0
10 287 0
31 287 0
-10 -31 -287 0
83 288 0
18 288 0
-83 -18 -288 0
-287 288 -289 0
287 -288 -289 0
-287 289 -288 0
287 289 288 0
290 -53 0
290 -201 0
53 201 -290 0
12 291 0
46 291 0
-12 -46 -291 0
16 -291 -292 0
16 291 292 0
268 -16 -46 -292 0
46 -267 -16 -292 0
292 -268 -16 -46 0
46 267 292 -16 0
-267 268 -16 -292 0
267 292 -268 -16 0
-291 -267 268 -292 0
267 292 -268 291 0
290 292 289 -293 0
292 -289 -293 -290 0
290 -289 -292 -293 0
289 -292 -293 -290 0
-289 -292 293 -290 0
290 289 -292 293 0
292 289 293 -290 0
290 292 -289 293 0
281 286 -294 293 0
-281 -294 -286 293 0
-281 286 -294 -293 0
281 -294 -286 -293 0
-281 294 -286 -293 0
281 286 294 -293 0
281 294 -286 293 0
-281 286 294 293 0
-295 -294 205 0
-205 -295 294 0
295 -205 -294 0
294 295 205 0
77 296 0
-205 296 0
-296 205 -77 0
6 -296 -297 0
6 296 297 0
295 -6 -77 -297 0
294 -6 77 -297 0
-295 -6 -77 297 0
-294 -6 77 297 0
294 295 -6 -297 0
-295 -294 -6 297 0
-296 294 295 -297 0
-295 296 -294 297 0
226 -298 297 276 0
-226 -298 -276 297 0
226 -298 -276 -297 0
-226 -298 -297 276 0
-226 298 -276 -297 0
226 298 -297 276 0
-226 298 297 276 0
226 298 -276 297 0
74 299 0
-224 299 0
-299 -74 224 0
6 300 0
220 300 0
-6 -220 -300 0
44 301 0
12 301 0
-44 -12 -301 0
-302 301 -300 0
-302 300 -301 0
302 -301 -300 0
302 300 301 0
16 303 0
-302 303 0
302 -16 -303 0
-304 -299 303 0
-304 299 -303 0
304 -299 -303 0
304 299 303 0
225 304 298 -305 0
-225 304 -298 -305 0
225 -304 -298 -305 0
-225 -304 298 -305 0
-225 -304 -298 305 0
225 -304 298 305 0
-225 304 298 305 0
225 304 -298 305 0
260 -306 275 305 0
-306 -275 305 -260 0
-306 275 -305 -260 0
260 -306 -275 -305 0
306 -275 -305 -260 0
260 306 275 -305 0
260 306 -275 305 0
306 275 305 -260 0
306 -307 246 223 0
306 -307 -246 -223 0
-306 -307 246 -223 0
-306 -307 -246 223 0
-306 -246 -223 307 0
-306 246 307 223 0
306 -246 307 223 0
306 246 -223 307 0
-307 0
-56 -308 55 0
-308 56 -55 0
308 -55 -56 0
55 56 308 0
4 309 0
-308 309 0
-309 -4 308 0
10 310 0
310 -99 0
-310 99 -10 0
8 311 0
10 311 0
-8 -10 -311 0
312 -311 0
16 312 0
311 -16 -312 0
-313 -310 312 0
-313 310 -312 0
313 -310 -312 0
313 310 312 0
-313 314 0
-309 314 0
313 309 -314 0
315 -55 0
315 -56 0
55 56 -315 0
8 316 0
115 316 0
-8 -115 -316 0
22 -316 -317 0
22 316 317 0
-115 -317 -22 156 0
115 -317 -22 -155 0
-115 317 -22 -156 0
115 155 317 -22 0
-317 -22 -155 156 0
155 317 -22 -156 0
-317 -155 156 -316 0
155 317 -156 316 0
10 318 0
149 318 0
-10 -149 -318 0
83 319 0
20 319 0
-83 -20 -319 0
319 -320 -318 0
-319 -320 318 0
-319 320 -318 0
319 320 318 0
315 -321 317 320 0
-321 -317 -315 320 0
-321 317 -320 -315 0
315 -321 -317 -320 0
321 -317 -320 -315 0
315 321 317 -320 0
315 321 -317 320 0
321 317 -315 320 0
-321 -322 308 0
321 -308 -322 0
322 -308 -321 0
321 322 308 0
67 323 0
323 -308 0
-323 308 -67 0
4 -323 -324 0
4 323 324 0
-324 322 -4 -67 0
321 67 -324 -4 0
324 -322 -4 -67 0
-321 67 324 -4 0
321 -324 322 -4 0
-321 324 -322 -4 0
321 -323 -324 322 0
-321 323 324 -322 0
324 -314 -325 0
-324 314 -325 0
-324 -314 325 0
324 314 325 0
326 -311 0
74 326 0
311 -74 -326 0
8 327 0
83 327 0
-8 -83 -327 0
89 328 0
10 328 0
-89 -10 -328 0
-327 -329 328 0
-329 327 -328 0
-327 329 -328 0
329 327 328 0
330 -329 0
16 330 0
329 -16 -330 0
-312 331 0
-310 331 0
310 312 -331 0
330 -332 326 331 0
-330 -332 -326 331 0
330 -332 -326 -331 0
-330 -332 326 -331 0
332 -330 -326 -331 0
332 330 326 -331 0
332 -330 326 331 0
332 330 -326 331 0
-333 -10 191 0
-333 10 -191 0
333 -10 -191 0
333 10 191 0
176 334 0
10 334 0
-334 -176 -10 0
-99 -334 -335 0
335 334 -99 0
99 -176 -333 -335 0
99 176 191 -335 0
333 335 -176 99 0
335 176 99 -191 0
-333 -335 99 191 0
333 335 99 -191 0
-333 -334 -335 191 0
333 335 334 -191 0
332 335 310 -336 0
335 -310 -332 -336 0
310 -335 -332 -336 0
332 -310 -335 -336 0
-310 -335 -332 336 0
332 310 -335 336 0
332 335 -310 336 0
335 310 -332 336 0
-337 102 336 325 0
-337 102 -336 -325 0
-102 -337 336 -325 0
-102 -337 -336 325 0
-102 337 -336 -325 0
-102 337 336 325 0
102 337 -336 325 0
102 337 336 -325 0
338 -109 0
124 338 0
109 -124 -338 0
-138 339 0
22 339 0
138 -22 -339 0
-338 -340 339 0
338 -340 -339 0
340 -338 -339 0
340 338 339 0
22 341 0
-109 341 0
-22 109 -341 0
-313 309 -342 0
313 -342 -309 0
342 -309 -313 0
313 309 342 0
343 -342 0
343 -341 0
-343 342 341 0
340 337 343 -344 0
-337 343 -340 -344 0
340 -337 -343 -344 0
337 -343 -340 -344 0
-337 -343 344 -340 0
340 337 -343 344 0
337 343 344 -340 0
340 -337 343 344 0
-112 345 0
-106 345 0
112 106 -345 0
20 346 0
346 -95 0
-20 -346 95 0
344 346 345 0
-344 346 -345 0
-344 -346 345 0
344 -346 -345 0
347 -311 0
64 347 0
311 -64 -347 0
-329 348 0
18 348 0
329 -18 -348 0
6 349 0
-308 349 0
-349 -6 308 0
-51 349 -350 0
51 -349 -350 0
-51 -349 350 0
51 349 350 0
10 351 0
351 -106 0
-351 106 -10 0
351 -352 -350 0
-351 -352 350 0
-351 352 -350 0
351 352 350 0
353 -311 0
18 353 0
311 -18 -353 0
-353 354 0
354 -352 0
353 -354 352 0
-355 347 354 348 0
-355 -347 354 -348 0
-355 -347 -354 348 0
-355 347 -354 -348 0
355 -347 -354 -348 0
355 347 -354 348 0
355 347 354 -348 0
355 -347 354 348 0
-109 356 0
24 356 0
109 -24 -356 0
357 -350 0
-351 357 0
350 351 -357 0
191 358 0
-106 358 0
106 -358 -191 0
10 -358 -359 0
10 358 359 0
164 -359 -10 -191 0
163 -359 -10 191 0
-164 -10 -191 359 0
-163 -10 191 359 0
164 163 -359 -10 0
-164 -163 -10 359 0
164 163 -359 -358 0
-164 -163 358 359 0
-360 -357 359 0
-360 -359 357 0
360 -357 -359 0
360 357 359 0
-51 361 0
-349 361 0
51 349 -361 0
55 -317 -362 0
317 -362 -55 0
362 -55 -317 0
55 317 362 0
-56 -363 320 0
56 -320 -363 0
-56 -320 363 0
56 363 320 0
315 362 -364 363 0
-362 -364 -315 363 0
362 -364 -315 -363 0
315 -362 -364 -363 0
-362 364 -315 -363 0
315 362 364 -363 0
315 -362 364 363 0
362 364 -315 363 0
-365 -364 308 0
-365 -308 364 0
365 -308 -364 0
365 364 308 0
77 366 0
-308 366 0
-366 308 -77 0
6 -366 -367 0
6 366 367 0
365 -367 -6 -77 0
-367 364 -6 77 0
-365 367 -6 -77 0
367 -364 -6 77 0
365 -367 364 -6 0
-365 367 -364 -6 0
365 -367 364 -366 0
-365 367 -364 366 0
349 367 361 -368 0
367 -349 -361 -368 0
-367 349 -361 -368 0
-367 -349 361 -368 0
-367 -349 -361 368 0
-367 349 361 368 0
367 -349 361 368 0
349 367 -361 368 0
10 369 0
83 369 0
-10 -83 -369 0
83 370 0
10 370 0
-83 -10 -370 0
-369 370 -371 0
-371 369 -370 0
-369 371 -370 0
370 371 369 0
8 372 0
12 372 0
-8 -12 -372 0
372 10 -373 371 0
372 -10 -373 -371 0
-372 10 -373 -371 0
-372 -10 -373 371 0
-372 -10 -371 373 0
-372 10 371 373 0
372 -10 371 373 0
372 10 -371 373 0
373 374 0
16 374 0
-16 -373 -374 0
10 -374 -375 0
10 374 375 0
-375 -10 -80 -373 0
74 -375 -10 373 0
375 -10 80 -373 0
375 -74 -10 373 0
74 -375 -10 -80 0
375 -74 -10 80 0
74 -375 -80 -374 0
375 -74 80 374 0
-51 375 -376 0
51 -375 -376 0
-51 -375 376 0
51 375 376 0
-197 377 0
-99 377 0
197 99 -377 0
-351 -378 377 0
351 -378 -377 0
-351 378 -377 0
351 378 377 0
376 378 -379 368 0
-376 378 -379 -368 0
376 -378 -379 -368 0
-376 -378 -379 368 0
-376 -378 379 -368 0
376 -378 379 368 0
-376 378 379 368 0
376 378 379 -368 0
20 380 0
12 380 0
-20 -12 -380 0
10 381 0
22 381 0
-10 -22 -381 0
381 -382 -380 0
-381 -382 380 0
-381 382 -380 0
381 382 380 0
-383 -382 57 0
-383 382 -57 0
383 -57 -382 0
383 382 57 0
4 384 0
-383 384 0
383 -384 -4 0
22 385 0
385 -95 0
-22 -385 95 0
384 385 -386 379 0
385 -384 -386 -379 0
384 -385 -386 -379 0
-385 -384 -386 379 0
-385 -384 386 -379 0
384 -385 386 379 0
385 -384 386 379 0
384 385 386 -379 0
360 356 -387 386 0
-360 -356 -387 386 0
360 -356 -387 -386 0
-360 356 -387 -386 0
-360 -356 387 -386 0
360 356 387 -386 0
-360 356 387 386 0
360 -356 387 386 0
22 388 0
-93 388 0
-22 93 -388 0
-95 -388 -389 0
-95 389 388 0
-93 124 95 -389 0
93 -123 95 -389 0
-93 -124 95 389 0
93 123 95 389 0
95 124 -123 -389 0
-124 123 95 389 0
-123 124 -388 -389 0
-124 123 389 388 0
355 387 389 0
-355 -387 389 0
-355 387 -389 0
355 -387 -389 0
10 390 0
12 390 0
-10 -12 -390 0
391 -390 0
16 391 0
390 -16 -391 0
10 392 0
-205 392 0
-10 -392 205 0
-391 -393 392 0
391 -392 -393 0
-391 -392 393 0
391 393 392 0
-60 -394 59 0
-59 -394 60 0
394 -59 -60 0
59 60 394 0
4 395 0
-394 395 0
-395 394 -4 0
-396 -393 395 0
-395 -396 393 0
-395 396 -393 0
396 393 395 0
397 -212 0
22 397 0
212 -22 -397 0
-396 397 -398 0
396 -397 -398 0
-396 -397 398 0
396 397 398 0
53 -398 0
398 -53 0
399 -230 0
10 399 0
230 -10 -399 0
22 400 0
-224 400 0
-22 224 -400 0
6 401 0
-394 401 0
-401 394 -6 0
-402 401 -400 0
-402 -401 400 0
-401 402 -400 0
401 402 400 0
403 -390 0
18 403 0
390 -18 -403 0
403 -402 -404 0
-403 -404 402 0
-403 -402 404 0
403 404 402 0
405 -404 0
405 -399 0
-405 404 399 0
271 406 0
10 406 0
-406 -271 -10 0
-230 -406 -407 0
406 407 -230 0
230 -271 -333 -407 0
271 -407 191 230 0
333 -271 407 230 0
271 407 -191 230 0
-333 -407 191 230 0
333 407 -191 230 0
-333 -406 -407 191 0
333 406 407 -191 0
-405 -408 407 0
405 -408 -407 0
408 -405 -407 0
408 405 407 0
409 -390 0
64 409 0
390 -64 -409 0
10 410 0
220 410 0
-10 -220 -410 0
83 411 0
12 411 0
-83 -12 -411 0
411 -410 -412 0
-411 410 -412 0
-411 412 -410 0
411 412 410 0
413 -412 0
18 413 0
412 -18 -413 0
413 -414 -409 0
-413 -414 409 0
-413 414 -409 0
413 414 409 0
415 -402 0
-403 415 0
402 403 -415 0
403 415 414 -416 0
-403 415 -414 -416 0
-403 -415 414 -416 0
403 -415 -414 -416 0
-403 -415 416 -414 0
403 -415 416 414 0
403 415 416 -414 0
-403 415 416 414 0
417 -212 0
24 417 0
212 -24 -417 0
418 -400 0
418 -401 0
400 401 -418 0
10 419 0
237 419 0
-10 -237 -419 0
83 420 0
24 420 0
-83 -24 -420 0
-421 -419 420 0
-421 419 -420 0
-419 421 -420 0
419 421 420 0
-59 422 0
-60 422 0
59 60 -422 0
12 423 0
115 423 0
-12 -115 -423 0
22 -423 -424 0
22 423 424 0
-115 -22 268 -424 0
115 -267 -22 -424 0
-115 -22 -268 424 0
115 267 -22 424 0
-267 -22 268 -424 0
267 -22 -268 424 0
-267 268 -423 -424 0
267 -268 424 423 0
421 -425 424 422 0
-421 -425 424 -422 0
-421 -425 -424 422 0
421 -425 -424 -422 0
-421 425 -424 -422 0
421 425 -424 422 0
421 425 424 -422 0
-421 425 424 422 0
-425 -426 394 0
-394 425 -426 0
426 -394 -425 0
425 426 394 0
77 427 0
-394 427 0
394 -427 -77 0
6 -427 -428 0
6 427 428 0
426 -428 -6 -77 0
425 -428 -6 77 0
-426 -6 428 -77 0
-425 -6 428 77 0
425 426 -428 -6 0
-425 -426 -6 428 0
425 426 -428 -427 0
-425 -426 427 428 0
-429 418 401 428 0
-429 -418 -401 428 0
-429 -418 401 -428 0
-429 418 -428 -401 0
429 -418 -428 -401 0
429 418 401 -428 0
429 418 -401 428 0
429 -418 401 428 0
-197 430 0
-205 430 0
197 205 -430 0
-224 431 0
124 431 0
224 -124 -431 0
22 432 0
-302 432 0
302 -22 -432 0
432 431 -433 400 0
432 -431 -433 -400 0
-432 431 -433 -400 0
-432 -431 -433 400 0
433 -432 -431 -400 0
433 -432 431 400 0
433 432 -431 400 0
433 432 431 -400 0
433 429 -434 430 0
433 -430 -429 -434 0
-429 -434 -433 430 0
-430 429 -434 -433 0
434 -430 -429 -433 0
434 429 -433 430 0
433 434 -430 429 0
433 434 -429 430 0
434 417 416 -435 0
434 -417 -435 -416 0
417 -434 -435 -416 0
-417 416 -434 -435 0
-417 -434 435 -416 0
417 416 -434 435 0
434 -417 416 435 0
434 417 435 -416 0
408 435 201 0
-408 201 -435 0
-408 435 -201 0
408 -201 -435 0
-97 436 0
6 436 0
97 -6 -436 0
437 -311 0
20 437 0
311 -20 -437 0
-102 438 0
4 438 0
102 -4 -438 0
-439 437 438 436 0
-439 -436 -437 438 0
-439 -436 437 -438 0
-439 -437 -438 436 0
439 -436 -437 -438 0
439 437 -438 436 0
439 -437 438 436 0
439 -436 437 438 0
-109 440 0
-106 440 0
106 109 -440 0
439 55 -441 440 0
-439 -441 440 -55 0
-439 55 -441 -440 0
439 -441 -440 -55 0
-439 441 -440 -55 0
439 55 441 -440 0
439 441 440 -55 0
-439 55 441 440 0
-308 442 0
-112 442 0
112 -442 308 0
443 -95 0
-99 443 0
95 99 -443 0
442 441 443 0
-442 -441 443 0
-443 442 -441 0
-443 -442 441 0
-308 444 0
10 444 0
308 -10 -444 0
321 445 0
10 445 0
-321 -10 -445 0
-308 -445 -446 0
-308 446 445 0
308 -321 -333 -446 0
321 191 308 -446 0
-321 333 446 308 0
321 -191 446 308 0
-333 191 308 -446 0
333 -191 446 308 0
-333 191 -446 -445 0
333 -191 446 445 0
-447 446 -444 0
-447 444 -446 0
447 -446 -444 0
447 444 446 0
448 -311 0
22 448 0
311 -22 -448 0
10 449 0
364 449 0
-10 -364 -449 0
-308 -449 -450 0
449 -308 450 0
-450 -333 -364 308 0
-450 364 191 308 0
333 450 -364 308 0
450 364 -191 308 0
-450 -333 191 308 0
333 450 -191 308 0
-450 -333 -449 191 0
449 333 450 -191 0
-451 450 56 444 0
-56 -451 450 -444 0
-450 -56 -451 444 0
-450 -451 56 -444 0
-450 -56 451 -444 0
-450 451 56 444 0
451 450 56 -444 0
-56 451 450 444 0
448 447 451 0
-448 -447 451 0
448 -447 -451 0
-448 447 -451 0
20 452 0
452 -390 0
-20 -452 390 0
453 -308 0
453 -197 0
197 308 -453 0
453 -454 -452 0
452 -454 -453 0
-452 -453 454 0
453 452 454 0
-224 455 0
-99 455 0
99 -455 224 0
-51 456 0
6 456 0
51 -6 -456 0
456 455 -457 454 0
-454 456 -455 -457 0
-454 455 -457 -456 0
-455 -457 -456 454 0
-454 -455 457 -456 0
455 457 -456 454 0
456 -455 457 454 0
-454 456 455 457 0
458 -53 0
4 458 0
53 -4 -458 0
459 -212 0
-106 459 0
106 -459 212 0
459 458 -460 457 0
459 -458 -460 -457 0
-459 458 -460 -457 0
-459 -458 -460 457 0
-459 -458 460 -457 0
-459 458 460 457 0
459 -458 460 457 0
459 458 460 -457 0
461 -109 0
461 -230 0
109 230 -461 0
-112 462 0
-394 462 0
112 394 -462 0
-463 461 462 460 0
-463 -461 462 -460 0
-463 461 -462 -460 0
-463 -461 -462 460 0
463 -461 -462 -460 0
463 461 -462 460 0
463 -461 462 460 0
463 461 462 -460 0
-311 464 0
24 464 0
311 -24 -464 0
-95 465 0
-205 465 0
95 205 -465 0
463 465 464 0
-463 -464 465 0
-463 -465 464 0
463 -464 -465 0
10 466 0
-394 466 0
-10 394 -466 0
421 -59 -467 0
-421 59 -467 0
-421 -59 467 0
421 59 467 0
-468 -467 422 0
-468 467 -422 0
468 -422 -467 0
467 422 468 0
-469 60 424 468 0
-469 -468 60 -424 0
-469 -60 -468 424 0
-469 -60 -424 468 0
469 -60 -424 -468 0
469 -60 424 468 0
469 60 -424 468 0
469 -468 60 424 0
469 470 0
10 470 0
-469 -10 -470 0
-394 -470 -471 0
-394 471 470 0
-333 -469 -471 394 0
469 -471 394 191 0
-469 333 394 471 0
469 394 471 -191 0
-333 -471 394 191 0
333 394 471 -191 0
-333 -471 191 -470 0
333 471 -191 470 0
-472 471 -466 0
-472 -471 466 0
472 -471 -466 0
472 471 466 0
10 473 0
425 473 0
-10 -425 -473 0
-394 -473 -474 0
-394 473 474 0
-333 -425 394 -474 0
425 394 191 -474 0
333 -425 394 474 0
425 394 -191 474 0
-333 394 191 -474 0
333 394 -191 474 0
-333 -473 191 -474 0
333 -191 473 474 0
475 -390 0
22 475 0
390 -22 -475 0
-476 475 466 474 0
-476 475 -466 -474 0
-476 -475 -466 474 0
-476 -475 466 -474 0
476 -475 -466 -474 0
476 -475 466 474 0
476 475 466 -474 0
476 475 -466 474 0
472 476 59 0
-472 59 -476 0
-472 -59 476 0
472 -59 -476 0
-197 477 0
-394 477 0
197 394 -477 0
-224 478 0
-205 478 0
-478 205 224 0
479 -201 0
6 479 0
201 -6 -479 0
479 478 -480 477 0
479 -478 -480 -477 0
-479 478 -480 -477 0
-479 -478 -480 477 0
-479 480 -478 -477 0
-479 480 478 477 0
479 480 -478 477 0
479 480 478 -477 0
481 -228 0
4 481 0
228 -4 -481 0
482 -212 0
482 -230 0
212 230 -482 0
480 482 -483 481 0
482 -483 -480 -481 0
-482 -483 -480 481 0
480 -482 -483 -481 0
-482 483 -480 -481 0
480 -482 483 481 0
480 482 483 -481 0
482 483 -480 481 0
484 -390 0
24 484 0
390 -24 -484 0
484 60 483 0
-484 -483 60 0
484 -60 -483 0
-60 -484 483 0
-97 485 0
10 485 0
97 -10 -485 0
-311 486 0
-99 486 0
99 -486 311 0
-485 -487 486 0
-487 485 -486 0
-485 487 -486 0
487 485 486 0
-55 488 0
4 488 0
55 -4 -488 0
-109 489 0
-308 489 0
109 308 -489 0
487 488 489 0
-487 489 -488 0
-487 488 -489 0
487 -489 -488 0
-55 490 0
6 490 0
55 -6 -490 0
10 491 0
-102 491 0
102 -10 -491 0
310 -492 491 490 0
-310 -492 491 -490 0
-310 -492 490 -491 0
310 -492 -490 -491 0
-310 -490 -491 492 0
310 490 -491 492 0
310 491 -490 492 0
-310 491 490 492 0
493 -311 0
493 -106 0
-493 106 311 0
494 -95 0
494 -308 0
95 308 -494 0
494 493 492 0
494 -493 -492 0
-494 493 -492 0
-494 -493 492 0
-390 495 0
-99 495 0
99 390 -495 0
10 496 0
-51 496 0
51 -496 -10 0
497 -311 0
-205 497 0
-497 205 311 0
497 496 -498 495 0
497 -496 -498 -495 0
-497 496 -498 -495 0
-497 -496 -498 495 0
-497 -496 498 -495 0
-497 496 498 495 0
497 -496 498 495 0
497 496 498 -495 0
-381 499 0
4 499 0
381 -4 -499 0
500 -212 0
500 -308 0
212 308 -500 0
500 -501 498 499 0
500 -501 -498 -499 0
-501 -500 -498 499 0
-501 -500 498 -499 0
501 -500 -498 -499 0
501 -500 498 499 0
500 501 498 -499 0
500 501 -498 499 0
502 -109 0
-394 502 0
109 394 -502 0
351 502 501 0
351 -502 -501 0
-351 502 -501 0
-351 -502 501 0
-224 503 0
-308 503 0
224 308 -503 0
-381 504 0
6 504 0
381 -6 -504 0
-505 503 504 392 0
-505 -503 -392 504 0
-504 -505 -503 392 0
-504 -505 503 -392 0
-504 505 -503 -392 0
-504 505 503 392 0
505 503 -392 504 0
505 -503 504 392 0
506 -390 0
-106 506 0
106 390 -506 0
507 -53 0
10 507 0
53 -10 -507 0
507 -508 506 505 0
507 -508 -505 -506 0
-507 -508 506 -505 0
-507 -508 505 -506 0
-507 -505 -506 508 0
-507 506 505 508 0
507 505 -506 508 0
507 506 -505 508 0
-311 509 0
509 -230 0
311 -509 230 0
510 -95 0
-394 510 0
95 394 -510 0
510 509 508 0
-508 510 -509 0
-508 -510 509 0
-510 -509 508 0
-390 511 0
-205 511 0
-511 205 390 0
-201 512 0
10 512 0
201 -10 -512 0
-60 513 0
4 513 0
60 -4 -513 0
-514 513 512 511 0
-511 -514 513 -512 0
-511 -513 -514 512 0
-513 -514 -512 511 0
-511 -513 514 -512 0
-513 514 512 511 0
514 513 -512 511 0
-511 514 513 512 0
515 -212 0
-394 515 0
212 394 -515 0
10 516 0
516 -230 0
-516 -10 230 0
516 514 515 0
516 -514 -515 0
-514 -516 515 0
514 -516 -515 0
-224 517 0
-394 517 0
224 394 -517 0
6 518 0
-60 518 0
60 -518 -6 0
518 -519 -517 0
-518 517 -519 0
-518 519 -517 0
518 517 519 0
-390 520 0
520 -230 0
-520 390 230 0
10 521 0
521 -228 0
-10 -521 228 0
521 519 520 0
-520 521 -519 0
-521 -519 520 0
-520 -521 519 0
-390 522 0
-308 522 0
390 -522 308 0
523 -311 0
-394 523 0
311 394 -523 0
-524 523 -522 0
-523 -524 522 0
-523 -522 524 0
523 524 522 0
525 -390 0
525 -308 0
-525 390 308 0
-311 526 0
-394 526 0
311 394 -526 0
525 524 526 0
-525 -524 526 0
525 -524 -526 0
-525 524 -526 0
85 -90 0
-85 90 0
210 -211 0
-210 211 0
412 -390 0
390 -412 0
109 0
302 -224 0
-302 224 0
311 0
104 -102 -527 0
-104 102 -527 0
-104 -102 527 0
104 102 527 0
51 52 527 0
51 -52 -527 0
-51 52 -527 0
-51 -52 527 0
8 528 0
149 528 0
-8 -149 -528 0
20 -528 -529 0
20 528 529 0
-20 -529 -149 156 0
-20 -529 149 -155 0
-20 -149 529 -156 0
-20 155 149 529 0
-20 -529 -155 156 0
-20 155 529 -156 0
-529 -528 -155 156 0
155 528 529 -156 0
-530 -529 184 0
-530 529 -184 0
530 -184 -529 0
529 184 530 0
-530 0
-531 54 -53 0
-531 -54 53 0
531 -54 -53 0
531 54 53 0
201 204 531 0
201 -204 -531 0
-531 204 -201 0
531 -204 -201 0
-12 -24 0
97 -98 0
-97 98 0
228 -229 0
-228 229 0
383 0
308 0
97 0
201 0
53 0
51 0
102 0
228 0
-8 -20 0
58 -59 0
59 -58 0
381 0
56 -57 0
-56 57 0
55 0
60 0
-532 0
-533 0
-534 0
-535 0
-536 0
-537 0
-538 0
-539 0
-540 0
-541 0
-542 0
-543 0
-544 0
-545 0
-546 0
-547 0
-548 0
-549 0
-550 0
-551 0
-552 0
-553 0
-554 0
-555 0
-556 0
-557 0
-558 0
-559 0
-560 0
-561 0
-562 0
-563 0
-564 0
-565 0
-566 0
-567 0
-568 0
-569 0
-570 0
-571 0
-572 0
-573 0
-574 0
-575 0
-576 0
-577 0
-578 0
-579 0
-580 0
-581 0
-582 0
-583 0
-584 0
-585 0
-586 0
-587 0
-588 0
-589 0
-590 0
-591 0
-592 0
-593 0
-594 0
-595 0
-596 0
-597 0
-598 0
-599 0
-600 0
-601 0
-602 0
-603 0
-604 0
-605 0
-606 0
-607 0
-608 0
-609 0
-610 0
-611 0
-612 0
-613 0
-614 0
-615 0
-616 0
-617 0
-618 0
-619 0
-620 0
-621 0
-622 0
-623 0
-624 0
-625 0
-626 0
-627 0
-628 0
-629 0
-630 0
-631 0
-632 0
-633 0
-634 0
-635 0
-636 0
-637 0
-638 0
-639 0
-640 0
-641 0
-642 0
-643 0
-644 0
-645 0
-646 0
-647 0
-648 0
-649 0
-650 0
-651 0
-652 0
-653 0
-654 0
-655 0
-656 0
-657 0
-658 0
-659 0
-660 0
-661 0
-662 0
-663 0
-664 0
-665 0
-666 0
-667 0
-668 0
-669 0
-670 0
-671 0
-672 0
-673 0
-674 0
-675 0
-676 0
-677 0
-678 0
-679 0
-680 0
-681 0
-682 0
-683 0
-684 0
-685 0
-686 0
-687 0
-688 0
-689 0
-690 0
-691 0
-692 0
-693 0
-694 0
-695 0
-696 0
-697 0
-698 0
-699 0
-700 0
-701 0
-702 0
-703 0
-704 0
-705 0
-706 0
-707 0
-708 0
-709 0
-710 0
-711 0
-712 0
-713 0
-714 0
-715 0
-716 0
-717 0
-718 0
-719 0
-720 0
-721 0
-722 0
-723 0
-724 0
-725 0
-726 0
-727 0
-728 0
-729 0
-730 0
-731 0
-732 0
-733 0
-734 0
-735 0
-736 0
-737 0
-738 0
-739 0
-740 0
-741 0
-742 0
-743 0
-744 0
-745 0
-746 0
-747 0
-748 0
-749 0
-750 0
-751 0
-752 0
-753 0
-754 0
-755 0
-756 0
-757 0
-758 0
-759 0
-760 0
-761 0
-762 0
-763 0
-764 0
-765 0
-766 0
-767 0
-768 0
-769 0
-770 0
-771 0
-772 0
-773 0
-774 0
-775 0
-776 0
-777 0
-778 0
-779 0
-780 0
-781 0
-782 0
-783 0
-784 0
-785 0
-786 0
-787 0
-788 0
-789 0
-790 0
-791 0
-792 0
-793 0
-794 0
-795 0
-796 0
-797 0
-798 0
-799 0
-800 0
-801 0
-802 0
-803 0
-804 0
-805 0
-806 0
-807 0
-808 0
-809 0
-810 0
-811 0
-812 0
-813 0
-814 0
-815 0
-816 0
-817 0
-818 0
-819 0
-820 0
-821 0
-822 0
-823 0
-824 0
-825 0
-826 0
-827 0
-828 0
-829 0
-830 0
-831 0
-832 0
-833 0
-834 0
-835 0
-836 0
-837 0
-838 0
-839 0
-840 0
-841 0
-842 0
-843 0
-844 0
-845 0
-846 0
-847 0
-848 0
-849 0
-850 0
-851 0
-852 0
-853 0
-854 0
-855 0
-856 0
-857 0
-858 0
-859 0
-860 0
-861 0
-862 0
-863 0
-864 0
-865 0
-866 0
-867 0
-48 -868 47 0
-47 48 -868 0
868 -47 -48 0
868 48 47 0
868 37 36 0
868 -36 -37 0
-36 37 -868 0
-37 -868 36 0
119 -37 -869 0
-119 37 -869 0
-119 -37 869 0
119 37 869 0
-869 0
-51 161 -870 0
51 -161 -870 0
-51 -161 870 0
51 161 870 0
-51 871 0
-52 871 0
51 52 -871 0
-872 145 870 871 0
-872 -145 -870 871 0
-872 145 -870 -871 0
-872 -145 870 -871 0
872 -145 -870 -871 0
872 145 870 -871 0
872 -145 870 871 0
872 145 -870 871 0
104 872 102 0
104 -102 -872 0
-104 -872 102 0
-104 872 -102 0
-873 -145 -870 0
-873 -145 -871 0
-873 -870 -871 0
873 145 870 0
873 145 871 0
873 870 871 0
25 874 0
22 874 0
-25 -22 -874 0
4 875 0
876 875 0
-4 -876 -875 0
29 877 0
115 877 0
-29 -115 -877 0
878 -143 0
878 -144 0
143 144 -878 0
878 877 -879 875 0
878 -877 -879 -875 0
-878 877 -879 -875 0
-878 -877 -879 875 0
-878 -877 879 -875 0
-878 877 879 875 0
878 -877 879 875 0
878 877 879 -875 0
873 -880 879 874 0
-874 -873 -880 879 0
-873 -880 -879 874 0
-874 873 -880 -879 0
-874 -873 880 -879 0
873 880 -879 874 0
-874 873 880 879 0
-873 880 879 874 0
51 881 0
161 881 0
-51 -161 -881 0
882 883 0
16 883 0
-882 -16 -883 0
10 884 0
43 884 0
-10 -43 -884 0
83 885 0
46 885 0
-83 -46 -885 0
-884 885 -886 0
884 -885 -886 0
-884 -885 886 0
884 885 886 0
-159 887 0
-160 887 0
159 160 -887 0
-888 883 886 887 0
-888 -883 -886 887 0
-888 -883 886 -887 0
-888 883 -886 -887 0
888 -883 -886 -887 0
888 883 886 -887 0
888 883 -886 887 0
888 -883 886 887 0
888 880 881 -889 0
888 -881 -880 -889 0
-888 -880 881 -889 0
-888 -881 880 -889 0
-888 -881 -880 889 0
-888 880 881 889 0
888 -881 880 889 0
888 -880 881 889 0
8 890 0
31 890 0
-8 -31 -890 0
89 891 0
18 891 0
-89 -18 -891 0
892 -102 0
-872 892 0
102 872 -892 0
891 890 892 -893 0
-891 892 -893 -890 0
891 -892 -893 -890 0
-891 890 -892 -893 0
-891 -892 893 -890 0
891 890 -892 893 0
-891 890 892 893 0
891 892 893 -890 0
151 893 889 0
151 -893 -889 0
893 -151 -889 0
-893 -151 889 0
-894 204 -201 0
-894 -204 201 0
-204 -201 894 0
204 201 894 0
284 289 894 0
284 -289 -894 0
-894 -284 289 0
-284 -289 894 0
220 895 0
16 895 0
-220 -16 -895 0
895 -896 201 291 0
-291 895 -896 -201 0
-895 -896 -201 291 0
-291 -895 -896 201 0
-291 -895 896 -201 0
-895 896 201 291 0
-291 895 896 201 0
895 896 -201 291 0
897 -204 0
897 -201 0
-897 204 201 0
896 897 279 -898 0
-896 897 -279 -898 0
-897 -896 279 -898 0
-897 896 -279 -898 0
-897 898 -896 -279 0
-897 898 896 279 0
898 896 897 -279 0
898 -896 897 279 0
882 899 0
18 899 0
-882 -18 -899 0
10 900 0
28 900 0
-10 -28 -900 0
83 901 0
31 901 0
-83 -31 -901 0
901 -900 -902 0
-901 900 -902 0
-901 -900 902 0
901 900 902 0
-287 903 0
903 -288 0
287 288 -903 0
903 -904 899 902 0
903 -904 -899 -902 0
-904 -899 902 -903 0
-904 899 -902 -903 0
904 -899 -902 -903 0
904 899 902 -903 0
903 904 899 -902 0
903 904 -899 902 0
-894 905 0
-289 905 0
289 894 -905 0
898 904 -906 905 0
-904 -906 -898 905 0
904 -906 -898 -905 0
898 -904 -906 -905 0
-904 906 -898 -905 0
898 904 906 -905 0
898 -904 906 905 0
904 906 -898 905 0
40 907 0
22 907 0
-40 -22 -907 0
6 908 0
876 908 0
-6 -876 -908 0
44 909 0
115 909 0
-44 -115 -909 0
-282 910 0
-283 910 0
282 283 -910 0
909 -911 908 910 0
-909 -911 -908 910 0
909 -911 -908 -910 0
-909 -911 908 -910 0
911 -909 -908 -910 0
911 909 908 -910 0
911 -909 908 910 0
911 909 -908 910 0
911 907 906 0
911 -907 -906 0
907 -911 -906 0
-907 -911 906 0
89 912 0
22 912 0
-89 -22 -912 0
912 320 316 0
-912 320 -316 0
912 -320 -316 0
-912 -320 316 0
220 913 0
22 913 0
-220 -22 -913 0
913 421 423 0
-421 913 -423 0
-421 -913 423 0
-913 421 -423 0
2 914 0
29 914 0
-2 -29 -914 0
915 916 0
4 916 0
-915 -4 -916 0
-917 66 914 916 0
-66 -917 -914 916 0
-916 -66 -917 914 0
-916 -917 66 -914 0
-916 -66 917 -914 0
-916 917 66 914 0
917 66 -914 916 0
-66 917 914 916 0
29 918 0
918 -66 0
-29 -918 66 0
25 918 917 -919 0
25 -918 -917 -919 0
-25 918 -917 -919 0
-25 -918 917 -919 0
-25 -918 -917 919 0
-25 918 917 919 0
25 -918 917 919 0
25 918 -917 919 0
919 920 0
18 920 0
-920 -18 -919 0
-63 921 0
62 921 0
63 -62 -921 0
2 -28 -922 0
-2 28 -922 0
922 -2 -28 0
2 28 922 0
915 -923 -2 0
2 -923 -915 0
923 -2 -915 0
2 915 923 0
-923 -924 28 0
-28 923 -924 0
924 -28 -923 0
923 924 28 0
924 -18 -925 0
-924 -18 925 0
18 -31 -922 -925 0
18 31 28 -925 0
-31 18 925 922 0
-28 18 31 925 0
28 18 -925 -922 0
-28 18 925 922 0
924 28 -925 -922 0
-28 -924 925 922 0
-926 -921 925 0
-926 921 -925 0
926 -921 -925 0
926 921 925 0
6 927 0
928 927 0
-6 -928 -927 0
44 929 0
14 929 0
-44 -14 -929 0
926 929 927 -930 0
-926 929 -927 -930 0
-926 -929 927 -930 0
926 -929 -927 -930 0
-926 -929 -927 930 0
926 -929 930 927 0
926 929 -927 930 0
-926 929 930 927 0
4 931 0
930 931 0
-4 -930 -931 0
67 932 0
64 932 0
-64 -932 -67 0
933 -68 0
933 -65 0
65 -933 68 0
932 933 -934 931 0
933 -934 -931 -932 0
932 -933 -934 -931 0
-933 -934 931 -932 0
-933 934 -931 -932 0
932 -933 934 931 0
933 934 931 -932 0
932 933 934 -931 0
935 -37 0
-69 935 0
37 69 -935 0
920 935 934 -936 0
-934 -920 935 -936 0
-920 -935 934 -936 0
-934 920 -935 -936 0
-934 -920 -935 936 0
920 -935 934 936 0
-934 920 935 936 0
-920 935 934 936 0
2 937 0
44 937 0
-2 -44 -937 0
915 938 0
6 938 0
-915 -6 -938 0
937 76 -939 938 0
-937 -939 938 -76 0
937 -939 -938 -76 0
-937 76 -939 -938 0
-937 939 -938 -76 0
937 76 939 -938 0
-937 76 939 938 0
937 939 938 -76 0
44 940 0
940 -76 0
-44 76 -940 0
40 939 -941 940 0
40 -939 -941 -940 0
-40 -939 -941 940 0
-40 939 -941 -940 0
-40 -939 941 -940 0
-40 939 940 941 0
40 939 941 -940 0
40 -939 940 941 0
941 942 0
16 942 0
-941 -16 -942 0
-73 943 0
72 943 0
73 -72 -943 0
2 -43 -944 0
43 -2 -944 0
944 -2 -43 0
2 944 43 0
43 -923 -945 0
923 -43 -945 0
945 -43 -923 0
43 923 945 0
-16 -946 945 0
946 -16 -945 0
16 -46 -944 -946 0
16 46 43 -946 0
944 16 946 -46 0
16 46 -43 946 0
16 43 -944 -946 0
944 16 -43 946 0
43 -944 -946 945 0
944 -43 946 -945 0
-947 946 -943 0
943 -947 -946 0
947 -943 -946 0
943 947 946 0
4 948 0
928 948 0
-4 -928 -948 0
29 949 0
14 949 0
-29 -14 -949 0
947 949 948 -950 0
-947 949 -948 -950 0
-947 -949 948 -950 0
947 -949 -948 -950 0
-947 -949 -948 950 0
947 -949 948 950 0
947 949 -948 950 0
-947 949 948 950 0
6 951 0
950 951 0
-6 -950 -951 0
77 952 0
74 952 0
-952 -74 -77 0
953 -78 0
953 -75 0
75 -953 78 0
952 953 951 -954 0
-952 953 -951 -954 0
952 -953 -951 -954 0
-952 -953 951 -954 0
-952 -953 -951 954 0
952 -953 951 954 0
-952 953 951 954 0
952 953 -951 954 0
942 936 954 0
-936 954 -942 0
942 -936 -954 0
936 -954 -942 0
4 955 0
124 955 0
-4 -124 -955 0
22 956 0
67 956 0
-22 -67 -956 0
-955 956 -957 0
955 -956 -957 0
-955 -956 957 0
955 956 957 0
-104 957 -958 0
104 -957 -958 0
-104 -957 958 0
104 957 958 0
18 959 0
-112 959 0
112 -18 -959 0
-960 959 -958 0
-960 -959 958 0
960 -959 -958 0
960 959 958 0
16 961 0
191 961 0
-16 -191 -961 0
74 962 0
10 962 0
-962 -74 -10 0
960 961 962 0
-961 -960 962 0
-962 961 -960 0
-962 960 -961 0
963 -958 0
963 -959 0
958 959 -963 0
-112 -964 131 0
112 -964 -131 0
-112 964 -131 0
112 964 131 0
64 965 0
-112 965 0
112 -64 -965 0
18 -965 -966 0
18 965 966 0
-18 -64 -964 -966 0
-131 -18 64 -966 0
964 -64 -18 966 0
-18 64 966 131 0
-964 -131 -18 -966 0
964 -18 966 131 0
-964 -131 -965 -966 0
964 965 966 131 0
-963 966 -967 0
963 -966 -967 0
-963 967 -966 0
963 967 966 0
919 968 0
22 968 0
-22 -919 -968 0
117 969 0
969 -121 0
-969 -117 121 0
2 -970 -876 0
-970 -2 876 0
970 -2 -876 0
2 970 876 0
-923 -971 876 0
923 -971 -876 0
971 -876 -923 0
923 876 971 0
-22 971 -972 0
-971 -22 972 0
22 -115 -970 -972 0
22 115 876 -972 0
22 -115 970 972 0
22 115 -876 972 0
-970 22 876 -972 0
22 -876 970 972 0
-970 876 971 -972 0
-971 -876 970 972 0
-969 -973 972 0
969 -973 -972 0
-969 973 -972 0
969 973 972 0
10 974 0
928 974 0
-10 -928 -974 0
83 975 0
14 975 0
-83 -14 -975 0
-974 975 -976 0
-975 974 -976 0
-975 -974 976 0
974 975 976 0
977 -119 0
977 -118 0
118 -977 119 0
868 977 -978 976 0
977 -978 -868 -976 0
868 -977 -978 -976 0
-977 -978 -868 976 0
-977 978 -868 -976 0
868 -977 978 976 0
977 978 -868 976 0
868 977 978 -976 0
-37 979 0
-120 979 0
37 120 -979 0
-36 -980 979 0
-980 36 -979 0
-36 980 -979 0
980 36 979 0
973 -981 978 980 0
-973 -981 -978 980 0
-973 -981 978 -980 0
973 -981 -978 -980 0
-973 981 -978 -980 0
973 981 978 -980 0
973 981 -978 980 0
-973 981 978 980 0
4 982 0
981 982 0
-4 -981 -982 0
67 983 0
124 983 0
-67 -124 -983 0
-955 984 0
-956 984 0
955 956 -984 0
983 982 -985 984 0
-982 -985 984 -983 0
983 -982 -985 -984 0
982 -985 -984 -983 0
-982 985 -984 -983 0
983 982 985 -984 0
982 985 984 -983 0
983 -982 985 984 0
-104 986 0
-957 986 0
104 957 -986 0
968 -987 985 986 0
-987 -985 986 -968 0
-987 -986 985 -968 0
968 -987 -986 -985 0
-986 987 -985 -968 0
968 -986 987 985 0
968 987 -985 986 0
987 985 986 -968 0
20 988 0
77 988 0
-20 -77 -988 0
6 -988 -989 0
6 988 989 0
-6 -77 -187 -989 0
186 -6 77 -989 0
989 -6 -77 187 0
989 -186 -6 77 0
-187 186 -6 -989 0
989 -186 -6 187 0
-988 -187 186 -989 0
988 989 -186 187 0
-104 989 -990 0
104 -990 -989 0
-104 990 -989 0
104 989 990 0
-991 987 990 967 0
-991 -987 990 -967 0
-991 987 -990 -967 0
-991 -987 -990 967 0
991 -987 -990 -967 0
991 987 -990 967 0
991 -987 990 967 0
991 987 990 -967 0
10 992 0
950 992 0
-10 -950 -992 0
4 993 0
44 993 0
-4 -44 -993 0
29 994 0
6 994 0
-29 -6 -994 0
994 -995 -993 0
-995 -994 993 0
995 -994 -993 0
994 995 993 0
190 996 0
-188 996 0
188 -996 -190 0
188 995 -997 996 0
-188 -995 -997 996 0
-188 995 -997 -996 0
188 -995 -997 -996 0
-188 -995 997 -996 0
188 995 997 -996 0
188 -995 997 996 0
-188 995 997 996 0
2 998 0
83 998 0
-2 -83 -998 0
915 999 0
10 999 0
-915 -10 -999 0
999 -1000 -998 0
-999 -1000 998 0
1000 -999 -998 0
1000 999 998 0
83 1001 0
-189 1001 0
-83 189 -1001 0
1000 189 -1002 1001 0
-189 -1000 -1002 1001 0
1000 -189 -1001 -1002 0
189 -1000 -1001 -1002 0
-189 -1000 -1001 1002 0
1000 189 -1001 1002 0
189 -1000 1002 1001 0
1000 -189 1002 1001 0
-1003 997 882 1002 0
-1003 -997 882 -1002 0
-1003 -997 -882 1002 0
-1003 997 -882 -1002 0
-997 -882 -1002 1003 0
997 -882 1002 1003 0
997 882 -1002 1003 0
-997 882 1002 1003 0
16 1004 0
1003 1004 0
-16 -1003 -1004 0
74 1005 0
191 1005 0
-74 -191 -1005 0
-961 1006 0
-962 1006 0
961 962 -1006 0
1005 1006 1004 -1007 0
-1005 1006 -1004 -1007 0
1005 -1006 -1004 -1007 0
-1005 -1006 1004 -1007 0
-1005 -1006 -1004 1007 0
1005 -1006 1004 1007 0
-1005 1006 1004 1007 0
1005 1006 -1004 1007 0
991 992 1007 0
-992 -991 1007 0
-991 992 -1007 0
-992 991 -1007 0
6 1008 0
124 1008 0
-6 -124 -1008 0
77 1009 0
22 1009 0
-22 -77 -1009 0
-1008 1009 -1010 0
1008 -1010 -1009 0
-1008 1010 -1009 0
1009 1008 1010 0
-54 -1011 1010 0
-1011 54 -1010 0
1011 -54 -1010 0
1011 54 1010 0
-1011 204 -1012 0
1011 -204 -1012 0
1012 -204 -1011 0
1011 1012 204 0
18 1013 0
191 1013 0
-18 -191 -1013 0
64 1014 0
10 1014 0
-64 -10 -1014 0
-1013 1014 -1015 0
1013 -1015 -1014 0
-1013 1015 -1014 0
1013 1014 1015 0
-54 1016 0
-79 1016 0
54 79 -1016 0
-1017 1016 -1015 0
-1017 -1016 1015 0
1017 -1016 -1015 0
1017 1016 1015 0
16 1018 0
-197 1018 0
197 -1018 -16 0
1012 1017 1018 0
-1017 1018 -1012 0
1017 -1018 -1012 0
1012 -1017 -1018 0
-1016 -1019 -1015 0
-1016 -1019 -1012 0
-1019 -1015 -1012 0
1019 1016 1015 0
1012 1019 1016 0
1012 1019 1015 0
930 1020 0
10 1020 0
-1020 -10 -930 0
18 1021 0
1003 1021 0
-18 -1003 -1021 0
64 1022 0
191 1022 0
-64 -191 -1022 0
-1013 1023 0
1023 -1014 0
1013 1014 -1023 0
1021 1023 1022 -1024 0
-1021 1023 -1022 -1024 0
-1021 -1023 1022 -1024 0
1021 -1023 -1022 -1024 0
-1021 -1023 -1022 1024 0
1021 -1023 1022 1024 0
1021 1023 -1022 1024 0
-1021 1023 1022 1024 0
1020 1019 -1025 1024 0
-1020 -1019 -1025 1024 0
1020 -1019 -1025 -1024 0
-1020 1019 -1025 -1024 0
-1020 1025 -1019 -1024 0
1020 1019 1025 -1024 0
-1020 1019 1025 1024 0
1020 1025 -1019 1024 0
1026 -1011 0
1026 -204 0
1011 204 -1026 0
67 1027 0
24 1027 0
-1027 -24 -67 0
4 -1027 -1028 0
4 1027 1028 0
-4 -67 -243 -1028 0
67 -1028 -4 242 0
243 1028 -4 -67 0
67 -242 1028 -4 0
-243 -1028 -4 242 0
243 -242 1028 -4 0
-243 -1028 -1027 242 0
243 -242 1028 1027 0
-1029 1028 -1026 0
1026 -1029 -1028 0
-1028 -1026 1029 0
1026 1028 1029 0
54 1030 0
1010 1030 0
-54 -1010 -1030 0
22 1031 0
941 1031 0
-22 -941 -1031 0
6 1032 0
981 1032 0
-6 -981 -1032 0
77 1033 0
124 1033 0
-77 -124 -1033 0
-1032 1033 -1034 0
1032 -1033 -1034 0
-1032 -1033 1034 0
1032 1033 1034 0
1035 -1009 0
-1008 1035 0
1009 -1035 1008 0
1031 -1036 1035 1034 0
-1036 1035 -1031 -1034 0
-1036 -1035 -1031 1034 0
1031 -1036 -1035 -1034 0
1036 -1035 -1031 -1034 0
1031 1036 -1035 1034 0
1031 1036 1035 -1034 0
1036 1035 -1031 1034 0
1036 -1037 1030 1029 0
-1029 1036 -1037 -1030 0
-1029 -1036 -1037 1030 0
-1036 -1037 -1030 1029 0
-1029 -1036 1037 -1030 0
-1036 1037 1030 1029 0
1036 1037 -1030 1029 0
-1029 1036 1037 1030 0
-197 -1038 221 0
197 -1038 -221 0
-197 1038 -221 0
197 1038 221 0
74 1039 0
1039 -197 0
197 -74 -1039 0
16 -1039 -1040 0
16 1039 1040 0
-16 -74 -1038 -1040 0
74 -1040 -16 -221 0
-74 -16 1038 1040 0
74 -16 221 1040 0
-1040 -16 -1038 -221 0
-16 1038 221 1040 0
-1040 -1039 -1038 -221 0
1039 1038 221 1040 0
1025 1037 1040 0
-1037 -1025 1040 0
1037 -1025 -1040 0
1025 -1037 -1040 0
16 1041 0
1041 -95 0
-1041 -16 95 0
111 1041 113 0
1041 -113 -111 0
-1041 -111 113 0
111 -1041 -113 0
22 1042 0
-197 1042 0
197 -1042 -22 0
59 1042 234 0
1042 -59 -234 0
-1042 59 -234 0
-59 -1042 234 0
341 -342 0
342 -341 0
353 385 352 0
-353 385 -352 0
353 -385 -352 0
-353 -385 352 0
1043 -398 0
1043 -53 0
-1043 398 53 0
373 1044 0
18 1044 0
-18 -1044 -373 0
10 -1044 -1045 0
10 1044 1045 0
-1045 -248 -10 -373 0
-1045 -10 64 373 0
1045 -10 -373 248 0
1045 -64 -10 373 0
-1045 -248 -10 64 0
1045 -64 -10 248 0
-1045 -248 64 -1044 0
1045 1044 -64 248 0
1045 -1043 -1046 0
-1045 1043 -1046 0
-1045 -1043 1046 0
1045 1043 1046 0
1047 -230 0
-112 1047 0
112 -1047 230 0
-396 1048 0
1048 -397 0
396 397 -1048 0
22 1049 0
-257 1049 0
257 -22 -1049 0
-212 -1049 -1050 0
1049 1050 -212 0
-257 124 212 -1050 0
212 257 -123 -1050 0
-257 -124 1050 212 0
257 1050 123 212 0
-123 124 212 -1050 0
-124 1050 123 212 0
-123 124 -1049 -1050 0
-124 1049 1050 123 0
-1051 1050 -1048 0
-1051 1048 -1050 0
1051 -1048 -1050 0
1051 1050 1048 0
-395 1052 0
-393 1052 0
393 395 -1052 0
-469 -1053 394 0
469 -1053 -394 0
1053 -394 -469 0
469 394 1053 0
67 1054 0
1054 -394 0
-1054 394 -67 0
4 -1054 -1055 0
4 1054 1055 0
-1055 1053 -4 -67 0
67 469 -1055 -4 0
-1053 1055 -4 -67 0
67 -469 1055 -4 0
469 -1055 1053 -4 0
-469 -1053 1055 -4 0
-1054 469 -1055 1053 0
-469 -1053 1054 1055 0
1055 -1056 -1052 0
-1055 -1056 1052 0
-1055 1056 -1052 0
1055 1056 1052 0
6 1057 0
-383 1057 0
383 -6 -1057 0
20 1058 0
-224 1058 0
-20 -1058 224 0
-391 1059 0
-392 1059 0
391 392 -1059 0
191 1060 0
-205 1060 0
205 -1060 -191 0
10 -1060 -1061 0
10 1060 1061 0
-1061 -10 295 -191 0
-1061 294 -10 191 0
-295 1061 -10 -191 0
1061 -294 -10 191 0
-1061 294 -10 295 0
-295 1061 -294 -10 0
-1061 294 295 -1060 0
-295 1061 -294 1060 0
1061 -1062 392 1059 0
1061 -1062 -392 -1059 0
-1061 -1062 392 -1059 0
-1061 -1062 -392 1059 0
-1061 1062 -392 -1059 0
-1061 1062 392 1059 0
1061 1062 -392 1059 0
1061 1062 392 -1059 0
74 1063 0
1063 -390 0
-1063 -74 390 0
1064 -412 0
16 1064 0
412 -16 -1064 0
-1063 -1065 1064 0
-1065 1063 -1064 0
-1063 1065 -1064 0
1065 1063 1064 0
-1066 1065 391 1062 0
-1066 1065 -391 -1062 0
-1066 -1065 391 -1062 0
-1066 -1065 -391 1062 0
1066 -1065 -391 -1062 0
1066 -1065 391 1062 0
1066 1065 -391 1062 0
1066 1065 391 -1062 0
1066 -1067 1057 1058 0
1066 -1067 -1058 -1057 0
-1066 -1067 -1057 1058 0
-1066 -1067 -1058 1057 0
-1066 1067 -1058 -1057 0
-1066 1067 1057 1058 0
1066 1067 -1058 1057 0
1066 1067 -1057 1058 0
-1068 1067 1056 1051 0
-1068 1067 -1056 -1051 0
-1068 1056 -1051 -1067 0
-1068 -1056 1051 -1067 0
1068 -1056 -1051 -1067 0
1068 1056 1051 -1067 0
1068 1067 -1056 1051 0
1068 1067 1056 -1051 0
1068 1047 392 -1069 0
1068 -392 -1047 -1069 0
-1068 392 -1047 -1069 0
-1068 -392 1047 -1069 0
-1068 -392 -1047 1069 0
-1068 1047 392 1069 0
1068 -392 1047 1069 0
1068 392 -1047 1069 0
397 1046 1069 0
397 -1046 -1069 0
-397 -1046 1069 0
-397 1046 -1069 0
399 -404 0
404 -399 0
81 -86 0
-81 86 0
8 1070 0
89 1070 0
-8 -89 -1070 0
8 1071 0
1072 1071 0
-8 -1072 -1071 0
-89 1071 -1073 0
89 -1071 -1073 0
-89 -1071 1073 0
89 1071 1073 0
8 1074 0
1072 1074 0
-8 -1072 -1074 0
1070 1073 1074 -1075 0
-1070 -1073 1074 -1075 0
-1070 1073 -1074 -1075 0
1070 -1073 -1074 -1075 0
-1070 -1073 -1074 1075 0
1070 1073 -1074 1075 0
1070 -1073 1074 1075 0
-1070 1073 1074 1075 0
-1075 0
251 -254 0
-251 254 0
12 1076 0
220 1076 0
-12 -220 -1076 0
12 1077 0
1078 1077 0
-12 -1078 -1077 0
-220 1077 -1079 0
220 -1077 -1079 0
-220 -1077 1079 0
220 1077 1079 0
12 1080 0
1078 1080 0
-12 -1078 -1080 0
1076 1079 1080 -1081 0
-1076 -1079 1080 -1081 0
-1076 1079 -1080 -1081 0
1076 -1079 -1080 -1081 0
-1076 -1079 -1080 1081 0
1076 1079 -1080 1081 0
1076 -1079 1080 1081 0
-1076 1079 1080 1081 0
-1081 0
390 0
138 -109 0
109 -138 0
224 0
371 -372 0
372 -371 0
-369 1082 0
-370 1082 0
369 370 -1082 0
10 1083 0
882 1083 0
-10 -882 -1083 0
-83 1083 -1084 0
83 -1083 -1084 0
-83 -1083 1084 0
83 1083 1084 0
10 1085 0
882 1085 0
-10 -882 -1085 0
1082 1084 1085 -1086 0
-1082 -1084 1085 -1086 0
-1082 1084 -1085 -1086 0
1082 -1084 -1085 -1086 0
-1082 -1084 -1085 1086 0
1082 1084 -1085 1086 0
1082 -1084 1085 1086 0
-1082 1084 1085 1086 0
8 1087 0
220 1087 0
-8 -220 -1087 0
89 1088 0
12 1088 0
-89 -12 -1088 0
-1087 1088 -1089 0
1087 -1088 -1089 0
-1087 -1088 1089 0
1087 1088 1089 0
372 1086 1089 -1090 0
-372 -1086 1089 -1090 0
372 -1086 -1089 -1090 0
-372 1086 -1089 -1090 0
-372 -1086 -1089 1090 0
372 1086 -1089 1090 0
-372 1086 1089 1090 0
372 -1086 1089 1090 0
-1090 0
329 -311 0
-329 311 0
-527 1091 0
-52 1091 0
52 527 -1091 0
52 145 1091 -1092 0
-52 -145 1091 -1092 0
-52 145 -1091 -1092 0
52 -145 -1091 -1092 0
-52 -145 -1091 1092 0
52 145 -1091 1092 0
52 -145 1091 1092 0
-52 145 1091 1092 0
-104 1093 0
-102 1093 0
104 102 -1093 0
104 151 1093 -1094 0
-104 -151 1093 -1094 0
-104 151 -1093 -1094 0
104 -151 -1093 -1094 0
-104 -151 -1093 1094 0
104 151 -1093 1094 0
104 -151 1093 1094 0
-104 151 1093 1094 0
102 158 1094 -1095 0
-102 158 -1094 -1095 0
-158 102 -1094 -1095 0
-158 -102 1094 -1095 0
-158 -102 -1094 1095 0
-158 102 1094 1095 0
-102 158 1094 1095 0
102 158 -1094 1095 0
161 1092 1095 -1096 0
161 -1092 -1095 -1096 0
-161 -1092 1095 -1096 0
-161 1092 -1095 -1096 0
-161 -1092 -1095 1096 0
-161 1092 1095 1096 0
161 1092 -1095 1096 0
161 -1092 1095 1096 0
-1096 0
-20 -8 0
289 -53 -1097 0
-289 53 -1097 0
-289 -53 1097 0
289 53 1097 0
-54 284 -1098 0
-284 54 -1098 0
-54 -284 1098 0
284 54 1098 0
-53 1099 0
-54 1099 0
53 54 -1099 0
1097 1098 1099 -1100 0
-1097 -1098 1099 -1100 0
-1097 1098 -1099 -1100 0
1097 -1098 -1099 -1100 0
-1097 -1098 -1099 1100 0
1097 1098 -1099 1100 0
1097 -1098 1099 1100 0
-1097 1098 1099 1100 0
-204 1101 0
-531 1101 0
204 531 -1101 0
204 279 1101 -1102 0
-204 -279 1101 -1102 0
-204 279 -1101 -1102 0
204 -279 -1101 -1102 0
-204 -279 -1101 1102 0
204 279 -1101 1102 0
204 -279 1101 1102 0
-204 279 1101 1102 0
292 1100 1102 -1103 0
-292 -1100 1102 -1103 0
-292 1100 -1102 -1103 0
292 -1100 -1102 -1103 0
-292 -1100 -1102 1103 0
292 1100 -1102 1103 0
292 -1100 1102 1103 0
-292 1100 1102 1103 0
-1103 0
12 1104 0
237 1104 0
-12 -237 -1104 0
24 -1104 -1105 0
24 1104 1105 0
268 -237 -24 -1105 0
-267 237 -24 -1105 0
-268 -237 -24 1105 0
267 237 -24 1105 0
-267 268 -24 -1105 0
267 -268 -24 1105 0
-267 268 -1104 -1105 0
267 -268 1104 1105 0
240 -1105 -1106 0
-240 1105 -1106 0
1106 -240 -1105 0
240 1105 1106 0
-1106 0
467 -424 -1107 0
424 -467 -1107 0
-424 -467 1107 0
467 424 1107 0
-1107 0
-175 171 -1108 0
175 -171 -1108 0
1108 -171 -175 0
175 171 1108 0
-1108 0
-270 264 -1109 0
-264 270 -1109 0
1109 -264 -270 0
270 264 1109 0
-1109 0
-382 1110 0
-57 1110 0
382 57 -1110 0
8 1111 0
237 1111 0
-8 -237 -1111 0
24 -1111 -1112 0
24 1111 1112 0
-237 156 -24 -1112 0
237 -155 -24 -1112 0
-237 -156 -24 1112 0
155 237 -24 1112 0
-155 156 -24 -1112 0
155 -156 -24 1112 0
-155 156 -1111 -1112 0
155 -156 1111 1112 0
57 1110 1112 -1113 0
-57 -1110 1112 -1113 0
57 -1110 -1112 -1113 0
-57 1110 -1112 -1113 0
-57 -1110 -1112 1113 0
57 1110 -1112 1113 0
-57 1110 1112 1113 0
57 -1110 1112 1113 0
10 1114 0
115 1114 0
-10 -115 -1114 0
83 1115 0
22 1115 0
-83 -22 -1115 0
-1114 1115 -1116 0
1114 -1115 -1116 0
-1114 -1115 1116 0
1114 1115 1116 0
-381 1117 0
-380 1117 0
381 380 -1117 0
381 1116 1117 -1118 0
-381 -1116 1117 -1118 0
-381 1116 -1117 -1118 0
381 -1116 -1117 -1118 0
-381 -1116 -1117 1118 0
381 1116 -1117 1118 0
381 -1116 1117 1118 0
-381 1116 1117 1118 0
12 1119 0
149 1119 0
-12 -149 -1119 0
20 -1119 -1120 0
20 1119 1120 0
-20 -149 268 -1120 0
-20 -267 149 -1120 0
-20 -149 -268 1120 0
-20 267 149 1120 0
-20 -267 268 -1120 0
-20 267 -268 1120 0
-267 268 -1119 -1120 0
267 -268 1119 1120 0
380 1118 1120 -1121 0
-380 -1118 1120 -1121 0
380 -1118 -1120 -1121 0
-380 1118 -1120 -1121 0
-380 -1118 -1120 1121 0
380 1118 -1120 1121 0
-380 1118 1120 1121 0
380 -1118 1120 1121 0
118 1113 1121 0
118 -1113 -1121 0
-118 -1113 1121 0
-118 1113 -1121 0
-317 363 -1122 0
317 -363 -1122 0
-317 -363 1122 0
317 363 1122 0
-1122 0
c 439 k!784
c 1068 k!1073
c 472 k!817
c 244 k!589
c 714 k!205
c 715 k!206
c 302 k!647
c 711 k!202
c 712 k!203
c 713 k!204
c 315 k!660
c 507 k!852
c 175 k!522
c 226 k!572
c 963 k!968
c 260 k!605
c 988 k!993
c 351 k!696
c 150 k!497
c 2 k!0
c 49 k!400
c 433 k!778
c 321 k!666
c 532 k!3
c 729 k!220
c 500 k!845
c 730 k!221
c 1 k!4
c 544 k!5
c 545 k!6
c 546 k!7
c 915 k!1
c 249 k!594
c 1011 k!1016
c 372 k!717
c 859 k!375
c 434 k!779
c 860 k!376
c 91 k!440
c 263 k!608
c 41 k!395
c 555 k!16
c 557 k!18
c 558 k!19
c 861 k!377
c 862 k!378
c 863 k!379
c 955 k!960
c 413 k!758
c 850 k!366
c 531 k!876
c 952 k!957
c 983 k!988
c 1012 k!1017
c 188 k!535
c 332 k!677
c 243 k!588
c 194 k!541
c 853 k!369
c 1005 k!1010
c 168 k!515
c 851 k!367
c 852 k!368
c 854 k!370
c 855 k!371
c 411 k!756
c 731 k!222
c 839 k!350
c 453 k!798
c 4 k!32
c 403 k!748
c 209 k!556
c 944 k!949
c 239 k!584
c 50 k!401
c 419 k!764
c 969 k!974
c 70 k!421
c 45 k!397
c 360 k!705
c 208 k!555
c 994 k!999
c 1039 k!1044
c 105 k!454
c 868 k!877
c 169 k!516
c 192 k!539
c 780 k!281
c 781 k!282
c 782 k!283
c 67 k!418
c 549 k!10
c 913 k!920
c 421 k!766
c 365 k!710
c 825 k!336
c 826 k!337
c 824 k!335
c 217 k!564
c 381 k!726
c 629 k!105
c 895 k!902
c 613 k!84
c 614 k!85
c 615 k!86
c 612 k!83
c 306 k!651
c 280 k!625
c 479 k!824
c 415 k!760
c 164 k!511
c 484 k!829
c 396 k!741
c 469 k!814
c 9 k!132
c 652 k!133
c 51 k!402
c 1020 k!1025
c 148 k!496
c 429 k!774
c 245 k!590
c 355 k!700
c 112 k!461
c 449 k!794
c 183 k!530
c 16 k!224
c 46 k!225
c 563 k!24
c 662 k!143
c 152 k!499
c 21 k!324
c 22 k!320
c 814 k!325
c 815 k!326
c 816 k!327
c 817 k!328
c 818 k!329
c 82 k!433
c 115 k!321
c 516 k!861
c 628 k!104
c 630 k!106
c 631 k!107
c 632 k!108
c 649 k!125
c 1026 k!1031
c 627 k!103
c 62 k!413
c 65 k!416
c 592 k!58
c 104 k!453
c 333 k!678
c 590 k!56
c 591 k!57
c 213 k!560
c 593 k!59
c 594 k!60
c 595 k!61
c 587 k!53
c 588 k!54
c 589 k!55
c 928 k!193
c 13 k!196
c 250 k!595
c 14 k!192
c 10 k!128
c 83 k!129
c 608 k!79
c 1019 k!1024
c 964 k!969
c 238 k!583
c 225 k!571
c 74 k!425
c 335 k!680
c 195 k!542
c 888 k!895
c 417 k!762
c 313 k!658
c 383 k!728
c 84 k!434
c 525 k!870
c 926 k!932
c 43 k!226
c 61 k!412
c 448 k!793
c 167 k!514
c 1031 k!1036
c 923 k!929
c 651 k!127
c 654 k!135
c 375 k!720
c 147 k!495
c 172 k!519
c 973 k!978
c 29 k!33
c 3 k!36
c 497 k!842
c 694 k!180
c 695 k!181
c 696 k!182
c 181 k!528
c 25 k!34
c 118 k!466
c 533 k!35
c 376 k!721
c 783 k!284
c 779 k!280
c 856 k!372
c 968 k!973
c 334 k!679
c 463 k!808
c 127 k!475
c 1017 k!1022
c 75 k!426
c 290 k!635
c 271 k!616
c 494 k!839
c 552 k!13
c 553 k!14
c 1054 k!1059
c 878 k!886
c 995 k!1000
c 97 k!446
c 304 k!649
c 943 k!948
c 151 k!498
c 1055 k!1060
c 281 k!626
c 476 k!821
c 200 k!547
c 771 k!272
c 872 k!881
c 1078 k!162
c 537 k!163
c 775 k!276
c 1000 k!1005
c 139 k!487
c 786 k!287
c 287 k!632
c 991 k!996
c 171 k!518
c 1021 k!1026
c 1009 k!1014
c 1016 k!1021
c 197 k!544
c 267 k!612
c 418 k!763
c 261 k!606
c 117 k!465
c 94 k!443
c 543 k!355
c 296 k!641
c 412 k!757
c 240 k!585
c 480 k!825
c 1025 k!1030
c 215 k!562
c 541 k!291
c 1045 k!1050
c 163 k!510
c 487 k!832
c 323 k!668
c 937 k!942
c 292 k!637
c 58 k!409
c 35 k!390
c 71 k!422
c 408 k!753
c 134 k!482
c 977 k!982
c 34 k!389
c 340 k!685
c 932 k!937
c 960 k!965
c 210 k!557
c 284 k!629
c 981 k!986
c 406 k!751
c 933 k!938
c 496 k!841
c 132 k!480
c 55 k!406
c 218 k!565
c 1061 k!1066
c 929 k!934
c 1066 k!1071
c 347 k!692
c 202 k!549
c 699 k!185
c 700 k!186
c 1067 k!1072
c 110 k!459
c 1072 k!98
c 535 k!99
c 1044 k!1049
c 299 k!644
c 405 k!750
c 644 k!120
c 701 k!187
c 702 k!188
c 703 k!189
c 704 k!190
c 697 k!183
c 698 k!184
c 734 k!230
c 755 k!251
c 756 k!252
c 754 k!250
c 1056 k!1061
c 659 k!140
c 660 k!141
c 661 k!142
c 911 k!918
c 562 k!23
c 257 k!602
c 1065 k!1070
c 840 k!351
c 707 k!198
c 788 k!294
c 452 k!797
c 678 k!159
c 677 k!158
c 87 k!437
c 146 k!494
c 947 k!952
c 310 k!655
c 40 k!66
c 534 k!67
c 596 k!62
c 597 k!63
c 669 k!150
c 670 k!151
c 671 k!152
c 664 k!145
c 666 k!147
c 665 k!146
c 667 k!148
c 668 k!149
c 349 k!694
c 155 k!502
c 425 k!770
c 1051 k!1056
c 382 k!727
c 653 k!134
c 946 k!951
c 482 k!827
c 111 k!460
c 891 k!898
c 999 k!1004
c 96 k!445
c 59 k!410
c 890 k!897
c 493 k!838
c 898 k!905
c 286 k!631
c 873 k!882
c 144 k!492
c 798 k!304
c 799 k!305
c 800 k!306
c 416 k!761
c 128 k!476
c 797 k!303
c 252 k!597
c 63 k!414
c 42 k!396
c 106 k!455
c 528 k!873
c 732 k!223
c 235 k!581
c 1070 k!1075
c 317 k!662
c 52 k!403
c 330 k!675
c 237 k!353
c 478 k!823
c 24 k!352
c 989 k!994
c 23 k!356
c 841 k!357
c 842 k!358
c 883 k!890
c 161 k!508
c 550 k!11
c 551 k!12
c 1013 k!1018
c 39 k!394
c 571 k!37
c 621 k!92
c 622 k!93
c 720 k!211
c 721 k!212
c 722 k!213
c 623 k!94
c 624 k!95
c 961 k!966
c 619 k!90
c 620 k!91
c 1023 k!1028
c 572 k!38
c 262 k!607
c 414 k!759
c 580 k!46
c 581 k!47
c 582 k!48
c 884 k!891
c 180 k!527
c 523 k!868
c 655 k!136
c 920 k!926
c 656 k!137
c 514 k!859
c 410 k!755
c 309 k!654
c 877 k!885
c 909 k!916
c 502 k!847
c 227 k!573
c 255 k!600
c 207 k!554
c 1049 k!1054
c 193 k!540
c 506 k!851
c 269 k!614
c 573 k!39
c 574 k!40
c 575 k!41
c 576 k!42
c 577 k!43
c 578 k!44
c 583 k!49
c 584 k!50
c 585 k!51
c 586 k!52
c 579 k!45
c 1036 k!1041
c 892 k!899
c 893 k!900
c 822 k!333
c 1050 k!1055
c 338 k!683
c 467 k!812
c 568 k!29
c 569 k!30
c 857 k!373
c 456 k!801
c 357 k!702
c 182 k!529
c 48 k!399
c 1032 k!1037
c 159 k!506
c 823 k!334
c 675 k!156
c 676 k!157
c 241 k!586
c 119 k!467
c 461 k!806
c 384 k!729
c 997 k!1002
c 1018 k!1023
c 186 k!533
c 378 k!723
c 107 k!456
c 268 k!613
c 216 k!563
c 353 k!698
c 404 k!749
c 982 k!987
c 607 k!78
c 247 k!592
c 60 k!411
c 769 k!270
c 770 k!271
c 145 k!493
c 251 k!596
c 510 k!855
c 833 k!344
c 834 k!345
c 76 k!427
c 835 k!346
c 836 k!347
c 837 k!348
c 838 k!349
c 831 k!342
c 832 k!343
c 918 k!924
c 930 k!935
c 1063 k!1068
c 1064 k!1069
c 882 k!130
c 536 k!131
c 483 k!828
c 129 k!477
c 987 k!992
c 447 k!792
c 459 k!804
c 170 k!517
c 109 k!458
c 259 k!604
c 162 k!509
c 232 k!578
c 426 k!771
c 294 k!639
c 176 k!523
c 93 k!442
c 564 k!25
c 565 k!26
c 566 k!27
c 560 k!21
c 561 k!22
c 985 k!990
c 927 k!933
c 356 k!701
c 962 k!967
c 774 k!275
c 847 k!363
c 848 k!364
c 849 k!365
c 992 k!997
c 246 k!591
c 222 k!568
c 924 k!930
c 85 k!435
c 970 k!975
c 684 k!170
c 685 k!171
c 686 k!172
c 663 k!144
c 658 k!139
c 329 k!674
c 99 k!448
c 32 k!387
c 505 k!850
c 437 k!782
c 102 k!451
c 256 k!601
c 844 k!360
c 845 k!361
c 846 k!362
c 158 k!505
c 843 k!359
c 337 k!682
c 435 k!780
c 173 k!520
c 12 k!160
c 876 k!322
c 542 k!323
c 812 k!318
c 813 k!319
c 283 k!628
c 451 k!796
c 149 k!289
c 327 k!672
c 298 k!643
c 547 k!8
c 548 k!9
c 935 k!940
c 965 k!970
c 274 k!619
c 189 k!536
c 880 k!888
c 462 k!807
c 503 k!848
c 801 k!307
c 934 k!939
c 475 k!820
c 20 k!288
c 19 k!292
c 787 k!293
c 277 k!622
c 401 k!746
c 121 k!469
c 424 k!769
c 220 k!161
c 939 k!944
c 679 k!165
c 11 k!164
c 680 k!166
c 278 k!623
c 808 k!314
c 809 k!315
c 810 k!316
c 811 k!317
c 681 k!167
c 682 k!168
c 683 k!169
c 142 k!490
c 143 k!491
c 295 k!640
c 73 k!424
c 133 k!481
c 1037 k!1042
c 978 k!983
c 409 k!754
c 312 k!657
c 203 k!550
c 64 k!415
c 343 k!688
c 1006 k!1011
c 233 k!579
c 324 k!669
c 974 k!979
c 326 k!671
c 38 k!393
c 903 k!910
c 92 k!441
c 140 k!488
c 79 k!430
c 266 k!611
c 387 k!732
c 450 k!795
c 940 k!945
c 394 k!739
c 258 k!603
c 27 k!385
c 37 k!392
c 391 k!736
c 289 k!634
c 407 k!752
c 288 k!633
c 917 k!923
c 953 k!958
c 300 k!645
c 380 k!725
c 358 k!703
c 30 k!386
c 912 k!919
c 367 k!712
c 166 k!513
c 904 k!911
c 938 k!943
c 56 k!407
c 442 k!787
c 1062 k!1067
c 1002 k!1007
c 399 k!744
c 907 k!914
c 513 k!858
c 827 k!338
c 828 k!339
c 829 k!340
c 830 k!341
c 441 k!786
c 803 k!309
c 996 k!1001
c 708 k!199
c 709 k!200
c 710 k!201
c 706 k!197
c 331 k!676
c 362 k!707
c 123 k!471
c 527 k!872
c 971 k!976
c 1035 k!1040
c 377 k!722
c 866 k!382
c 867 k!383
c 275 k!620
c 364 k!709
c 716 k!207
c 717 k!208
c 718 k!209
c 719 k!210
c 609 k!80
c 610 k!81
c 611 k!82
c 606 k!77
c 518 k!863
c 432 k!777
c 1030 k!1035
c 896 k!903
c 791 k!297
c 792 k!298
c 793 k!299
c 98 k!447
c 789 k!295
c 794 k!300
c 795 k!301
c 796 k!302
c 790 k!296
c 885 k!892
c 423 k!768
c 319 k!664
c 33 k!388
c 931 k!936
c 501 k!846
c 427 k!772
c 54 k!405
c 757 k!253
c 1041 k!1046
c 178 k!525
c 1001 k!1006
c 199 k!546
c 759 k!255
c 908 k!915
c 1043 k!1048
c 28 k!258
c 540 k!259
c 758 k!254
c 314 k!659
c 481 k!826
c 949 k!954
c 647 k!123
c 648 k!124
c 397 k!742
c 752 k!248
c 753 k!249
c 385 k!730
c 444 k!789
c 956 k!961
c 766 k!267
c 767 k!268
c 768 k!269
c 88 k!438
c 897 k!904
c 990 k!995
c 80 k!431
c 236 k!582
c 1028 k!1033
c 100 k!449
c 366 k!711
c 101 k!450
c 485 k!830
c 443 k!788
c 1003 k!1008
c 657 k!138
c 1004 k!1009
c 205 k!552
c 204 k!551
c 1060 k!1065
c 393 k!738
c 517 k!862
c 57 k!408
c 672 k!153
c 673 k!154
c 674 k!155
c 322 k!667
c 504 k!849
c 179 k!526
c 1048 k!1053
c 1047 k!1052
c 1022 k!1027
c 69 k!420
c 941 k!946
c 392 k!737
c 1038 k!1043
c 554 k!15
c 440 k!785
c 66 k!417
c 458 k!803
c 201 k!548
c 344 k!689
c 190 k!537
c 125 k!473
c 539 k!227
c 301 k!646
c 957 k!962
c 342 k!687
c 921 k!927
c 901 k!908
c 174 k!521
c 390 k!735
c 906 k!913
c 515 k!860
c 914 k!921
c 471 k!816
c 998 k!1003
c 191 k!538
c 570 k!31
c 858 k!374
c 567 k!28
c 972 k!977
c 967 k!972
c 354 k!699
c 951 k!956
c 807 k!313
c 177 k!524
c 402 k!747
c 398 k!743
c 135 k!483
c 744 k!240
c 745 k!241
c 740 k!236
c 746 k!242
c 747 k!243
c 742 k!238
c 748 k!244
c 741 k!237
c 743 k!239
c 942 k!947
c 900 k!907
c 529 k!874
c 138 k!486
c 137 k!485
c 279 k!624
c 124 k!472
c 438 k!783
c 270 k!615
c 1053 k!1058
c 431 k!776
c 8 k!96
c 395 k!740
c 89 k!97
c 7 k!100
c 625 k!101
c 626 k!102
c 211 k!558
c 156 k!503
c 446 k!791
c 219 k!566
c 455 k!800
c 122 k!470
c 428 k!773
c 879 k!887
c 15 k!228
c 733 k!229
c 874 k!883
c 986 k!991
c 311 k!656
c 948 k!953
c 980 k!985
c 966 k!971
c 5 k!68
c 598 k!69
c 386 k!731
c 420 k!765
c 723 k!214
c 724 k!215
c 725 k!216
c 346 k!691
c 726 k!217
c 727 k!218
c 728 k!219
c 599 k!70
c 600 k!71
c 361 k!706
c 899 k!906
c 1057 k!1062
c 359 k!704
c 498 k!843
c 1014 k!1019
c 196 k!543
c 352 k!697
c 18 k!256
c 31 k!257
c 17 k!260
c 819 k!330
c 272 k!617
c 116 k!464
c 6 k!64
c 601 k!72
c 602 k!73
c 603 k!74
c 604 k!75
c 605 k!76
c 254 k!599
c 44 k!65
c 491 k!836
c 120 k!468
c 103 k!452
c 1059 k!1064
c 870 k!879
c 307 k!652
c 886 k!893
c 975 k!980
c 521 k!866
c 1008 k!1013
c 902 k!909
c 1024 k!1029
c 616 k!87
c 617 k!88
c 618 k!89
c 460 k!805
c 772 k!273
c 881 k!889
c 936 k!941
c 436 k!781
c 650 k!126
c 512 k!857
c 242 k!587
c 198 k!545
c 157 k!504
c 86 k!436
c 776 k!277
c 777 k!278
c 778 k!279
c 773 k!274
c 285 k!630
c 1015 k!1020
c 519 k!864
c 1042 k!1047
c 1058 k!1063
c 153 k!500
c 160 k!507
c 457 k!802
c 185 k!532
c 976 k!981
c 265 k!610
c 495 k!840
c 136 k!484
c 26 k!384
c 363 k!708
c 875 k!884
c 328 k!673
c 221 k!567
c 212 k!559
c 206 k!553
c 224 k!570
c 379 k!724
c 473 k!818
c 47 k!398
c 336 k!681
c 1010 k!1015
c 81 k!432
c 954 k!959
c 131 k!479
c 130 k!478
c 348 k!693
c 308 k!653
c 735 k!231
c 760 k!261
c 761 k!262
c 90 k!439
c 470 k!815
c 762 k!263
c 763 k!264
c 764 k!265
c 765 k!266
c 736 k!232
c 737 k!233
c 738 k!234
c 1033 k!1038
c 400 k!745
c 68 k!419
c 77 k!428
c 919 k!925
c 894 k!901
c 214 k!561
c 95 k!444
c 165 k!512
c 633 k!109
c 638 k!114
c 639 k!115
c 634 k!110
c 635 k!111
c 640 k!116
c 641 k!117
c 642 k!118
c 643 k!119
c 636 k!112
c 637 k!113
c 297 k!642
c 465 k!810
c 374 k!719
c 445 k!790
c 984 k!989
c 784 k!285
c 785 k!286
c 430 k!775
c 303 k!648
c 293 k!638
c 370 k!715
c 389 k!734
c 804 k!310
c 805 k!311
c 806 k!312
c 802 k!308
c 1034 k!1039
c 273 k!618
c 869 k!878
c 184 k!531
c 371 k!716
c 320 k!665
c 187 k!534
c 488 k!833
c 318 k!663
c 524 k!869
c 234 k!580
c 466 k!811
c 739 k!235
c 490 k!835
c 538 k!195
c 705 k!191
c 864 k!380
c 865 k!381
c 889 k!896
c 368 k!713
c 388 k!733
c 114 k!463
c 925 k!931
c 141 k!489
c 36 k!391
c 474 k!819
c 922 k!928
c 486 k!831
c 1027 k!1032
c 749 k!245
c 750 k!246
c 751 k!247
c 422 k!767
c 530 k!875
c 325 k!670
c 345 k!690
c 291 k!636
c 1046 k!1051
c 509 k!854
c 464 k!809
c 264 k!609
c 248 k!593
c 72 k!423
c 454 k!799
c 78 k!429
c 154 k!501
c 282 k!627
c 959 k!964
c 339 k!684
c 511 k!856
c 689 k!175
c 231 k!577
c 871 k!880
c 520 k!865
c 1069 k!1074
c 690 k!176
c 489 k!834
c 691 k!177
c 692 k!178
c 693 k!179
c 687 k!173
c 688 k!174
c 341 k!686
c 305 k!650
c 916 k!922
c 526 k!871
c 230 k!576
c 1007 k!1012
c 499 k!844
c 228 k!574
c 276 k!621
c 468 k!813
c 910 k!917
c 945 k!950
c 369 k!714
c 1029 k!1034
c 350 k!695
c 993 k!998
c 316 k!661
c 477 k!822
c 53 k!404
c 905 k!912
c 229 k!575
c 958 k!963
c 373 k!718
c 492 k!837
c 1052 k!1057
c 556 k!17
c 559 k!20
c 253 k!598
c 887 k!894
c 645 k!121
c 646 k!122
c 223 k!569
c 1040 k!1045
c 508 k!853
c 950 k!955
c 522 k!867
c 820 k!331
c 821 k!332
c 113 k!462
c 979 k!984
c 108 k!457
c 126 k!474
c 1071 k!1076
c 1073 k!1077
c 1074 k!1078
c 1075 k!1079
c 1076 k!1080
c 1077 k!1081
c 1079 k!1082
c 1080 k!1083
c 1081 k!1084
c 1082 k!1085
c 1083 k!1086
c 1084 k!1087
c 1085 k!1088
c 1086 k!1089
c 1087 k!1090
c 1088 k!1091
c 1089 k!1092
c 1090 k!1093
c 1091 k!1094
c 1092 k!1095
c 1093 k!1096
c 1094 k!1097
c 1095 k!1098
c 1096 k!1099
c 1097 k!1100
c 1098 k!1101
c 1099 k!1102
c 1100 k!1103
c 1101 k!1104
c 1102 k!1105
c 1103 k!1106
c 1104 k!1107
c 1105 k!1108
c 1106 k!1109
c 1107 k!1110
c 1108 k!1111
c 1109 k!1112
c 1110 k!1113
c 1111 k!1114
c 1112 k!1115
c 1113 k!1116
c 1114 k!1117
c 1115 k!1118
c 1116 k!1119
c 1117 k!1120
c 1118 k!1121
c 1119 k!1122
c 1120 k!1123
c 1121 k!1124
c 1122 k!1125
